TITL p21c in P2(1)/c
 p21c.res created by SHELXL-2016/3 at 14:29:18 on 14-Jul-2016
CELL 0.71073 10.5086 20.9035 20.5072 90 94.13 90
ZERR 4 0.0003 0.0005 0.0005 0 0.001 0
LATT 1
SYMM -X,0.5+Y,0.5-Z
SFAC  C  H  O  F  Al  Ga
UNIT  1  2  3  4  5  6
LIST 6 ! automatically inserted. Change 6 to 4 for CHECKCIF!!

L.S.  10
PLAN  20
TEMP -173.18
BOND $H
fmap 2

SADI_CCF3 0.02 C1 C2 C1 C3 C1 C4
SADI_CCF3 0.02 F1 C2 F2 C2 F3 C2 F4 C3 F5 C3 F6 C3 F7 C4 F8 C4 F9 C4
SADI_CCF3 0.04 C2 C3 C3 C4 C2 C4
SADI_CCF3 0.04 O1 C2 O1 C3 O1 C4
SADI_CCF3 0.04 F1 F2 F2 F3 F3 F1 F4 F5 F5 F6 F6 F4 F7 F8 F8 F9 F9 F7
DFIX_CCF3 1.35 O1 C1
SADI_CCF3 0.1 F1 C1 F2 C1 F3 C1 F4 C1 F5 C1 F6 C1 F7 C1 F8 C1 F9 C1
SIMU_CCF3 O1 > F9
RIGU_CCF3 O1 > F9

WGHT    0.049400    0.393100
FVAR       0.08667   0.47797   1.00333

GA1   6    0.639483    0.561721    0.237747    11.00000    0.02412    0.02495 =
         0.02483    0.00009   -0.00159    0.00158
AL1   5    0.064205    0.260171    0.478722    11.00000    0.01607    0.01985 =
         0.01354    0.00011   -0.00196    0.00125

RESI 5 CCF3
O1    3   -0.097593    0.260966    0.489384    11.00000    0.01798    0.02652 =
         0.01634   -0.00437    0.00044    0.00119
C1    1   -0.187504    0.282782    0.527531    11.00000    0.01807    0.02353 =
         0.01797    0.00008   -0.00179    0.00036
C2    1   -0.154484    0.264463    0.600371    11.00000    0.02015    0.03949 =
         0.02129   -0.00340   -0.00032    0.00589
F1    4   -0.175207    0.202377    0.610190    11.00000    0.04101    0.04280 =
         0.02810    0.01314    0.00205    0.00421
F2    4   -0.222417    0.296888    0.641480    11.00000    0.03225    0.06776 =
         0.01929   -0.00747    0.00332    0.01447
F3    4   -0.031386    0.275623    0.616652    11.00000    0.02383    0.05669 =
         0.02245   -0.00530   -0.00839    0.00612
C3    1   -0.201059    0.356777    0.522258    11.00000    0.02156    0.02918 =
         0.02967   -0.00588   -0.00019   -0.00012
F4    4   -0.189451    0.376108    0.461217    11.00000    0.04521    0.02925 =
         0.03416    0.00572    0.00399    0.00171
F5    4   -0.110435    0.386693    0.560102    11.00000    0.02689    0.03309 =
         0.04581   -0.01482   -0.00201   -0.00396
F6    4   -0.313378    0.377233    0.540587    11.00000    0.02306    0.03368 =
         0.04440   -0.00672    0.00041    0.00898
C4    1   -0.315868    0.251600    0.503935    11.00000    0.02207    0.03050 =
         0.02243    0.00124    0.00050   -0.00026
F7    4   -0.362684    0.278291    0.447789    11.00000    0.02356    0.04181 =
         0.02758    0.00149   -0.01085    0.00248
F8    4   -0.404425    0.257785    0.546986    11.00000    0.02028    0.04996 =
         0.03451   -0.00183    0.00561   -0.00351
F9    4   -0.301580    0.189486    0.492703    11.00000    0.02692    0.02591 =
         0.04181   -0.00305   -0.00218   -0.00521

RESI 0


RESI 4 CCF3
O1    3    0.120304    0.336564    0.494140    11.00000    0.01593    0.02298 =
         0.02326   -0.00173   -0.00259   -0.00301
C1    1    0.223363    0.375104    0.503874    11.00000    0.01645    0.02304 =
         0.02057    0.00076   -0.00370   -0.00053
C2    1    0.325211    0.359140    0.456054    11.00000    0.02118    0.03088 =
         0.03005   -0.00057   -0.00061   -0.00056
F1    4    0.342866    0.296297    0.452007    11.00000    0.02364    0.03048 =
         0.04970   -0.00878    0.00486    0.00446
F2    4    0.438973    0.385310    0.473511    11.00000    0.01813    0.04477 =
         0.05107   -0.00484    0.00329   -0.00714
F3    4    0.290619    0.379817    0.395749    11.00000    0.03889    0.04537 =
         0.02538    0.00207    0.00736   -0.00250
C3    1    0.178992    0.445173    0.492612    11.00000    0.02289    0.02534 =
         0.02706    0.00122   -0.00226   -0.00245
F4    4    0.116124    0.466277    0.542681    11.00000    0.03180    0.02778 =
         0.03901   -0.00841    0.00306    0.00284
F5    4    0.100232    0.449605    0.439041    11.00000    0.03793    0.03331 =
         0.03399    0.00821   -0.01239    0.00687
F6    4    0.276157    0.485081    0.485705    11.00000    0.03282    0.02494 =
         0.04620    0.00543    0.00127   -0.00780
C4    1    0.282243    0.368617    0.575619    11.00000    0.02674    0.03000 =
         0.02686   -0.00015   -0.00821   -0.00303
F7    4    0.191982    0.365464    0.617295    11.00000    0.04133    0.05401 =
         0.02006    0.00219    0.00047   -0.01001
F8    4    0.358403    0.417816    0.593737    11.00000    0.03468    0.03908 =
         0.03443   -0.00341   -0.01567   -0.00890
F9    4    0.351780    0.315144    0.582811    11.00000    0.03585    0.03495 =
         0.04047    0.00843   -0.02049    0.00401
RESI 0

C34   1    0.369779    0.548463    0.213267    11.00000    0.02074    0.02251 =
         0.03079   -0.00604   -0.00207    0.00023
AFIX  43
H34   2    0.340485    0.506204    0.204042    11.00000   -1.20000
AFIX   0
C33   1    0.380777    0.569553    0.277872    11.00000    0.01588    0.03369 =
         0.02298    0.00054   -0.00207    0.00467
C32   1    0.425318    0.631348    0.290513    11.00000    0.01557    0.03216 =
         0.02607   -0.00842   -0.00359    0.00468
AFIX  43
H32   2    0.435746    0.645803    0.334493    11.00000   -1.20000
AFIX   0
C35   1    0.400850    0.588026    0.161480    11.00000    0.01776    0.02954 =
         0.02163   -0.00178   -0.00549    0.00341
C30   1    0.443816    0.649744    0.176509    11.00000    0.02003    0.02414 =
         0.02630    0.00539   -0.00198    0.00460
AFIX  43
H30   2    0.466146    0.677102    0.142147    11.00000   -1.20000
AFIX   0
C36   1    0.384337    0.565245    0.091976    11.00000    0.04493    0.03529 =
         0.02229   -0.00210   -0.00414    0.00178
AFIX 137
H36A  2    0.295884    0.572196    0.074939    11.00000   -1.50000
H36B  2    0.404469    0.519527    0.090242    11.00000   -1.50000
H36C  2    0.441877    0.589139    0.065365    11.00000   -1.50000
AFIX   0
C31   1    0.454907    0.672417    0.240652    11.00000    0.01714    0.02505 =
         0.03598   -0.00456   -0.00445    0.00476
C37   1    0.341047    0.527433    0.332430    11.00000    0.02744    0.04367 =
         0.02924    0.00168    0.00272   -0.00544
AFIX 137
H37A  2    0.407993    0.527529    0.368261    11.00000   -1.50000
H37B  2    0.327819    0.483671    0.316189    11.00000   -1.50000
H37C  2    0.261478    0.543692    0.348337    11.00000   -1.50000
AFIX   0
C38   1    0.494494    0.740579    0.255507    11.00000    0.03722    0.02673 =
         0.04706   -0.00690   -0.00628   -0.00011
AFIX 137
H38A  2    0.526457    0.760081    0.216417    11.00000   -1.50000
H38B  2    0.561915    0.741025    0.291102    11.00000   -1.50000
H38C  2    0.420817    0.764890    0.268649    11.00000   -1.50000
AFIX   0

C21   1    0.721389    0.447907    0.167679    11.00000    0.02962    0.02272 =
         0.02634   -0.00351   -0.00198    0.00841
C20   1    0.838179    0.474844    0.190290    11.00000    0.02451    0.02894 =
         0.02845    0.00303    0.00391    0.00562
AFIX  43
H20   2    0.893813    0.490912    0.159644    11.00000   -1.20000
AFIX   0
C23   1    0.673569    0.429324    0.280664    11.00000    0.02826    0.01936 =
         0.03037    0.00272    0.00363    0.00504
C25   1    0.874513    0.478575    0.256834    11.00000    0.02025    0.02806 =
         0.03473    0.00289   -0.00770    0.00376
C22   1    0.641101    0.425529    0.213079    11.00000    0.02696    0.02024 =
         0.03521   -0.00049   -0.00346    0.00094
AFIX  43
H22   2    0.561679    0.407051    0.198170    11.00000   -1.20000
AFIX   0
C28   1    0.684950    0.443196    0.095372    11.00000    0.04999    0.03865 =
         0.02565   -0.00663   -0.00492    0.00396
AFIX 137
H28A  2    0.656267    0.485129    0.078764    11.00000   -1.50000
H28B  2    0.615826    0.412023    0.087739    11.00000   -1.50000
H28C  2    0.759074    0.429373    0.072614    11.00000   -1.50000
AFIX   0
C27   1    0.589027    0.401619    0.328784    11.00000    0.04337    0.04065 =
         0.03864    0.00919    0.00612   -0.00256
AFIX 137
H27A  2    0.581528    0.431823    0.364855    11.00000   -1.50000
H27B  2    0.625667    0.361363    0.345924    11.00000   -1.50000
H27C  2    0.504339    0.393467    0.307189    11.00000   -1.50000
AFIX   0
C24   1    0.790366    0.456350    0.301168    11.00000    0.03251    0.02588 =
         0.02363    0.00036   -0.00483    0.00949
AFIX  43
H24   2    0.813516    0.459775    0.346675    11.00000   -1.20000
AFIX   0
C26   1    1.003168    0.505421    0.281166    11.00000    0.02987    0.06145 =
         0.05136    0.00778   -0.01326   -0.00177
AFIX 137
H26A  2    1.041940    0.527160    0.245180    11.00000   -1.50000
H26B  2    1.058841    0.470474    0.297539    11.00000   -1.50000
H26C  2    0.991957    0.536000    0.316521    11.00000   -1.50000
AFIX   0

SADI Al1_0 O1_1 Al1_0 O1_2 Al1_0 O1_3 Al1_0 O1_4 Al1_0 O1_5

RESI 1 CF3

PART 1 21
O1    3    0.156858    0.210326    0.529745    21.00000    0.02308    0.01515 =
         0.02425    0.00145   -0.00760    0.00429
C1    1    0.198396    0.149689    0.543843    21.00000    0.02025    0.01470 =
         0.02323    0.00285   -0.00517   -0.00039
C2    1    0.283543    0.125064    0.490326    21.00000    0.04379    0.02620 =
         0.02591    0.00082   -0.00067    0.00834
F1    4    0.357584    0.075160    0.511571    21.00000    0.04619    0.03099 =
         0.02982   -0.00414   -0.00206    0.01334
F2    4    0.359971    0.170655    0.471084    21.00000    0.03927    0.03776 =
         0.04555    0.00950    0.02057    0.01134
F3    4    0.212166    0.103999    0.438130    21.00000    0.08576    0.03513 =
         0.02918   -0.01198   -0.02319    0.02566
C3    1    0.086955    0.103359    0.549834    21.00000    0.02101    0.03027 =
         0.05975    0.01246   -0.00399    0.00126
F4    4    0.118506    0.041258    0.547432    21.00000    0.02341    0.03155 =
         0.09252    0.01924   -0.00462   -0.00322
F5    4   -0.003541    0.114198    0.501236    21.00000    0.02954    0.03862 =
         0.09051    0.00945   -0.02598   -0.00855
F6    4    0.032041    0.112651    0.606553    21.00000    0.03854    0.05400 =
         0.08312    0.03320    0.02827    0.00273
C4    1    0.279962    0.152767    0.609931    21.00000    0.03592    0.02828 =
         0.02256    0.00634   -0.00734    0.00774
F7    4    0.222219    0.188242    0.652745    21.00000    0.06722    0.04607 =
         0.01664    0.00714   -0.00188    0.02021
F8    4    0.297220    0.093896    0.636592    21.00000    0.05826    0.03066 =
         0.02543    0.01088   -0.00794    0.01474
F9    4    0.395453    0.177142    0.602223    21.00000    0.02805    0.03877 =
         0.04404   -0.00480   -0.01888    0.00196
PART 0
RESI 0

RESI 2 CF3
PART 2 -21
O1    3    0.141583    0.205810    0.531333   -21.00000    0.02545    0.02498 =
         0.01551    0.00237    0.00105    0.00441
C1    1    0.182085    0.146424    0.546002   -21.00000    0.01907    0.02481 =
         0.02235   -0.00072   -0.00450    0.00751
C2    1    0.192990    0.140463    0.621175   -21.00000    0.04357    0.02875 =
         0.02438    0.00741   -0.00764    0.00061
F1    4    0.245150    0.192591    0.648804   -21.00000    0.05020    0.04158 =
         0.02877   -0.00642   -0.01664   -0.00254
F2    4    0.265495    0.090699    0.642773   -21.00000    0.06651    0.04712 =
         0.03966    0.01637   -0.01192    0.01960
F3    4    0.078849    0.132065    0.643364   -21.00000    0.06092    0.04617 =
         0.03408    0.01228    0.01926    0.00569
C3    1    0.090890    0.095368    0.515801   -21.00000    0.02492    0.03103 =
         0.03512   -0.00107   -0.00378    0.00333
F4    4    0.107445    0.085414    0.452518   -21.00000    0.05394    0.03840 =
         0.03586   -0.01403   -0.00895    0.00857
F5    4   -0.030316    0.112086    0.519998   -21.00000    0.01650    0.04220 =
         0.05890   -0.00302   -0.00255   -0.00682
F6    4    0.107083    0.039054    0.545979   -21.00000    0.05863    0.02362 =
         0.05322   -0.00328   -0.01071   -0.00332
C4    1    0.316347    0.137144    0.519787   -21.00000    0.02936    0.02444 =
         0.05044    0.00974    0.00680    0.00476
F7    4    0.319121    0.157680    0.458483   -21.00000    0.04252    0.04675 =
         0.04629    0.01867    0.02146    0.01424
F8    4    0.352656    0.075471    0.520420   -21.00000    0.02965    0.03380 =
         0.06152    0.01404    0.01127    0.02147
F9    4    0.406092    0.168173    0.556496   -21.00000    0.02263    0.03820 =
         0.09041    0.00232   -0.00668   -0.00273
PART 0
RESI 0

RESI 3 CF3
PART 1 31
O1    3    0.08192   0.23529   0.40001  31.00000   0.04000
C1    1    0.03311   0.23278   0.33693  31.00000   0.04000
C2    1    0.14214   0.22506   0.29535  31.00000   0.04000
F1    4    0.11244   0.20699   0.23331  31.00000   0.04000
F2    4    0.24466   0.20127   0.31756  31.00000   0.04000
F3    4    0.17230   0.30444   0.29140  31.00000   0.04000
C3    1   -0.03659   0.29147   0.31609  31.00000   0.04000
F4    4   -0.01606   0.34247   0.34816  31.00000   0.04000
F5    4   -0.06384   0.30086   0.25335  31.00000   0.04000
F6    4   -0.17963   0.26534   0.34222  31.00000   0.04000
C4    1   -0.05011   0.17542   0.32705  31.00000   0.04000
F7    4   -0.11205   0.15599   0.37362  31.00000   0.04000
F8    4   -0.12092   0.17281   0.27024  31.00000   0.04000
F9    4    0.06937   0.12360   0.31923  31.00000   0.04000
RESI 0
PART 0

HKLF 4




REM  p21c in P2(1)/c
REM R1 =  0.0561 for    7085 Fo > 4sig(Fo)  and  0.0965 for all   10786 data
REM    819 parameters refined using   1426 restraints

END 
 
WGHT      0.0668      7.0321 

REM Highest difference peak  1.863,  deepest hole -1.510,  1-sigma level  0.098
Q1    1  -0.1115  0.2076  0.3331  11.00000  0.05    1.86
Q2    1   0.2043  0.2884  0.2909  11.00000  0.05    1.55
Q3    1   0.1196  0.1862  0.2988  11.00000  0.05    1.53
Q4    1   0.0336  0.3078  0.3058  11.00000  0.05    1.41
Q5    1   0.1158  0.3324  0.2964  11.00000  0.05    1.30


