
    p21c.res created by SHELXL-2014/7

 
TITL p21c in P2(1)/c
CELL 0.71073 10.5086 20.9035 20.5072 90 94.13 90
ZERR 4 0.0003 0.0005 0.0005 0 0.001 0
LATT 1
SYMM -X,0.5+Y,0.5-Z
SFAC  C  H  O  F  Al  Ga
UNIT  1  2  3  4  5  6
LIST 6 ! automatically inserted. Change 6 to 4 for CHECKCIF!!
 
L.S.  10
PLAN  20
TEMP -173.18
BOND $H
fmap 2
 
WGHT    0.049800
FVAR       0.08681   0.49319   0.56575
GA1   6    0.639514    0.561736    0.237757    11.00000    0.02410    0.02506 =
         0.02490    0.00000   -0.00158    0.00159
AL1   5    0.064284    0.260188    0.478728    11.00000    0.01602    0.01974 =
         0.01369   -0.00009   -0.00219    0.00124
RESI 1 CCF3
O1    3   -0.097360    0.260923    0.489314    11.00000    0.01699    0.02597 =
         0.01668   -0.00412    0.00034    0.00073
C1    1   -0.187318    0.282855    0.527502    11.00000    0.01732    0.02284 =
         0.01764   -0.00066   -0.00180    0.00129
C2    1   -0.154282    0.264415    0.600363    11.00000    0.02034    0.03784 =
         0.02187   -0.00140   -0.00024    0.00598
F1    4   -0.175178    0.202426    0.610078    11.00000    0.04018    0.04360 =
         0.02844    0.01297    0.00119    0.00388
F2    4   -0.222313    0.297021    0.641454    11.00000    0.03260    0.06791 =
         0.01967   -0.00703    0.00361    0.01570
F3    4   -0.031510    0.275536    0.616638    11.00000    0.02289    0.05758 =
         0.02209   -0.00624   -0.00800    0.00748
C3    1   -0.201051    0.356736    0.522196    11.00000    0.02171    0.02845 =
         0.02953   -0.00553    0.00032    0.00048
F4    4   -0.189450    0.376062    0.461252    11.00000    0.04548    0.02835 =
         0.03504    0.00583    0.00449    0.00197
F5    4   -0.110412    0.386661    0.560072    11.00000    0.02688    0.03296 =
         0.04590   -0.01521   -0.00148   -0.00427
F6    4   -0.313277    0.377288    0.540565    11.00000    0.02352    0.03304 =
         0.04447   -0.00654   -0.00014    0.00923
C4    1   -0.316015    0.251676    0.503979    11.00000    0.02160    0.02849 =
         0.02390    0.00031    0.00053    0.00048
F7    4   -0.362563    0.278267    0.447767    11.00000    0.02261    0.04184 =
         0.02733    0.00101   -0.00999    0.00171
F8    4   -0.404342    0.257818    0.547043    11.00000    0.02069    0.04871 =
         0.03556   -0.00168    0.00531   -0.00214
F9    4   -0.301419    0.189561    0.492532    11.00000    0.02682    0.02723 =
         0.04230   -0.00398   -0.00188   -0.00522
RESI 0
 
RESI 2 CCF3
O1    3    0.120468    0.336563    0.494130    11.00000    0.01598    0.02181 =
         0.02322   -0.00108   -0.00230   -0.00164
C1    1    0.223117    0.375175    0.503831    11.00000    0.01564    0.02216 =
         0.02115    0.00109   -0.00359   -0.00070
C2    1    0.325776    0.359146    0.456110    11.00000    0.02140    0.02879 =
         0.02994   -0.00089    0.00017   -0.00063
F1    4    0.342781    0.296337    0.451998    11.00000    0.02511    0.03106 =
         0.04930   -0.00937    0.00442    0.00456
F2    4    0.439087    0.385306    0.473509    11.00000    0.01756    0.04342 =
         0.05124   -0.00546    0.00364   -0.00636
F3    4    0.290709    0.379727    0.395756    11.00000    0.03911    0.04620 =
         0.02557    0.00194    0.00740   -0.00321
C3    1    0.178848    0.445136    0.492608    11.00000    0.02234    0.02509 =
         0.02743    0.00167   -0.00210   -0.00068
F4    4    0.116028    0.466249    0.542732    11.00000    0.03126    0.02816 =
         0.03892   -0.00862    0.00237    0.00362
F5    4    0.100267    0.449630    0.439084    11.00000    0.03696    0.03260 =
         0.03465    0.00775   -0.01227    0.00725
F6    4    0.276131    0.485243    0.485739    11.00000    0.03302    0.02490 =
         0.04640    0.00499    0.00087   -0.00669
C4    1    0.282199    0.368629    0.575512    11.00000    0.02744    0.02973 =
         0.02577    0.00088   -0.00759   -0.00365
F7    4    0.192066    0.365514    0.617284    11.00000    0.04123    0.05360 =
         0.02035    0.00216   -0.00021   -0.00927
F8    4    0.358326    0.417821    0.593768    11.00000    0.03448    0.03936 =
         0.03397   -0.00357   -0.01512   -0.00997
F9    4    0.351885    0.315197    0.582806    11.00000    0.03634    0.03414 =
         0.04104    0.00790   -0.02027    0.00461
RESI 0
 
C34   1    0.369685    0.548738    0.213212    11.00000    0.01987    0.02251 =
         0.03078   -0.00496   -0.00283    0.00114
AFIX  43
H34   2    0.340314    0.506512    0.203878    11.00000   -1.20000
AFIX   0
C33   1    0.380600    0.569531    0.277908    11.00000    0.01589    0.03253 =
         0.02434    0.00148   -0.00199    0.00412
C32   1    0.425175    0.631372    0.290553    11.00000    0.01525    0.03229 =
         0.02650   -0.00916   -0.00395    0.00547
AFIX  43
H32   2    0.435575    0.645835    0.334531    11.00000   -1.20000
AFIX   0
C35   1    0.400662    0.588154    0.161611    11.00000    0.01778    0.02849 =
         0.02230   -0.00160   -0.00588    0.00274
C30   1    0.443716    0.649840    0.176364    11.00000    0.02038    0.02429 =
         0.02610    0.00452   -0.00250    0.00395
AFIX  43
H30   2    0.466037    0.677158    0.141968    11.00000   -1.20000
AFIX   0
C36   1    0.383704    0.565133    0.092080    11.00000    0.04294    0.03597 =
         0.02275   -0.00277   -0.00399    0.00001
AFIX 137
H36A  2    0.294964    0.571654    0.075300    11.00000   -1.50000
H36B  2    0.404634    0.519504    0.090400    11.00000   -1.50000
H36C  2    0.440460    0.589233    0.065214    11.00000   -1.50000
AFIX   0
C31   1    0.454815    0.672448    0.240671    11.00000    0.01654    0.02499 =
         0.03564   -0.00423   -0.00387    0.00397
C37   1    0.341154    0.527429    0.332503    11.00000    0.02654    0.04340 =
         0.02852    0.00150    0.00201   -0.00423
AFIX 137
H37A  2    0.409030    0.526810    0.367868    11.00000   -1.50000
H37B  2    0.326108    0.483866    0.316048    11.00000   -1.50000
H37C  2    0.262646    0.544205    0.349131    11.00000   -1.50000
AFIX   0
C38   1    0.494339    0.740502    0.255567    11.00000    0.03618    0.02807 =
         0.04821   -0.00744   -0.00690   -0.00094
AFIX 137
H38A  2    0.530000    0.759405    0.217131    11.00000   -1.50000
H38B  2    0.558908    0.741062    0.292508    11.00000   -1.50000
H38C  2    0.419809    0.765293    0.266749    11.00000   -1.50000
AFIX   0
 
C21   1    0.721948    0.447957    0.167570    11.00000    0.02884    0.02291 =
         0.02633   -0.00355   -0.00157    0.00701
C20   1    0.838297    0.474772    0.190368    11.00000    0.02348    0.03010 =
         0.02894    0.00423    0.00472    0.00712
AFIX  43
H20   2    0.894181    0.490765    0.159804    11.00000   -1.20000
AFIX   0
C23   1    0.673451    0.429165    0.280510    11.00000    0.03011    0.01941 =
         0.02964    0.00335    0.00341    0.00518
C25   1    0.874350    0.478622    0.256909    11.00000    0.01972    0.02785 =
         0.03495    0.00292   -0.00742    0.00352
C22   1    0.641005    0.425692    0.213115    11.00000    0.02699    0.02155 =
         0.03429   -0.00075   -0.00335    0.00177
AFIX  43
H22   2    0.561279    0.407570    0.198158    11.00000   -1.20000
AFIX   0
C28   1    0.685672    0.443543    0.095294    11.00000    0.05011    0.03682 =
         0.02584   -0.00653   -0.00448    0.00290
AFIX 137
H28A  2    0.672248    0.486651    0.077310    11.00000   -1.50000
H28B  2    0.606871    0.418675    0.088025    11.00000   -1.50000
H28C  2    0.754298    0.422433    0.073529    11.00000   -1.50000
AFIX   0
C27   1    0.588493    0.401773    0.328945    11.00000    0.04256    0.04066 =
         0.03947    0.00840    0.00641   -0.00207
AFIX 137
H27A  2    0.582545    0.431817    0.365285    11.00000   -1.50000
H27B  2    0.624023    0.361124    0.345653    11.00000   -1.50000
H27C  2    0.503271    0.394440    0.307617    11.00000   -1.50000
AFIX   0
C24   1    0.790623    0.456431    0.301096    11.00000    0.03203    0.02723 =
         0.02307    0.00015   -0.00477    0.00910
AFIX  43
H24   2    0.813750    0.459908    0.346601    11.00000   -1.20000
AFIX   0
C26   1    1.002692    0.505414    0.281375    11.00000    0.02874    0.06251 =
         0.05026    0.00698   -0.01299   -0.00247
AFIX 137
H26A  2    1.045851    0.522894    0.244502    11.00000   -1.50000
H26B  2    1.054914    0.471270    0.302276    11.00000   -1.50000
H26C  2    0.990482    0.539439    0.313202    11.00000   -1.50000
AFIX   0
 
RESI 3 CCF3
PART 1 21
O1    3    0.161315    0.212267    0.530798    21.00000    0.01227    0.01544 =
         0.01992    0.00051   -0.00571   -0.00377
C1    1    0.197630    0.150858    0.543359    21.00000    0.02099    0.01728 =
         0.02243    0.00224   -0.00397    0.00101
C2    1    0.283661    0.125131    0.490548    21.00000    0.04579    0.02651 =
         0.03252    0.00485   -0.00139    0.00958
F1    4    0.354735    0.074779    0.510253    21.00000    0.04688    0.02900 =
         0.02680   -0.00429   -0.00163    0.01546
F2    4    0.359383    0.170509    0.471447    21.00000    0.03846    0.03742 =
         0.04427    0.00691    0.01801    0.01056
F3    4    0.211310    0.103954    0.438251    21.00000    0.08798    0.04108 =
         0.02898   -0.01292   -0.02349    0.02774
C3    1    0.087626    0.103736    0.549214    21.00000    0.02619    0.03156 =
         0.06796    0.01013   -0.01235    0.00464
F4    4    0.116136    0.040364    0.547092    21.00000    0.03783    0.03019 =
         0.11400    0.02744   -0.01063   -0.00219
F5    4   -0.006036    0.114781    0.501932    21.00000    0.03395    0.03881 =
         0.09575    0.01356   -0.03605   -0.01252
F6    4    0.032918    0.113309    0.607399    21.00000    0.04157    0.05408 =
         0.08755    0.03380    0.03387    0.00383
C4    1    0.280321    0.152925    0.609985    21.00000    0.04193    0.02848 =
         0.02448    0.00682   -0.00685    0.01057
F7    4    0.226142    0.186763    0.651924    21.00000    0.08602    0.04312 =
         0.01383   -0.00207   -0.00692    0.02101
F8    4    0.296569    0.092995    0.635585    21.00000    0.05510    0.03269 =
         0.02433    0.01318   -0.00465    0.02037
F9    4    0.395155    0.177131    0.601981    21.00000    0.02683    0.03987 =
         0.04883   -0.00307   -0.01878    0.00137
PART 0
RESI 0
 
SADI Al1_0 O1_1 Al1_0 O1_2 Al1_0 O1_3 Al1_0 O1_4 Al1_0 O1_5 Al1_0 O1_6
EADP C1_3 C1_5
EADP O1_5 O1_3
EADP C1_6 C1_4
EADP O1_4 O1_6
 
SADI_CCF3 0.02 C1 C2 C1 C3 C1 C4
SADI_CCF3 0.02 F1 C2 F2 C2 F3 C2 F4 C3 F5 C3 F6 C3 F7 C4 F8 C4 F9 C4
SADI_CCF3 0.04 C2 C3 C3 C4 C2 C4
SADI_CCF3 0.04 O1 C2 O1 C3 O1 C4
SADI_CCF3 0.04 F1 F2 F2 F3 F3 F1 F4 F5 F5 F6 F6 F4 F7 F8 F8 F9 F9 F7
DFIX_CCF3 1.35 O1 C1
SADI_CCF3 0.1 F1 C1 F2 C1 F3 C1 F4 C1 F5 C1 F6 C1 F7 C1 F8 C1 F9 C1
SIMU_CCF3 O1 > F9
RIGU_CCF3 O1 > F9
RESI 5 CCF3
PART 2 -21
O1    3    0.137605    0.204085    0.530373   -21.00000    0.01227    0.01544 =
         0.01992    0.00051   -0.00571   -0.00377
C1    1    0.183528    0.145640    0.546095   -21.00000    0.02099    0.01728 =
         0.02243    0.00224   -0.00397    0.00101
C2    1    0.192603    0.140728    0.621445   -21.00000    0.03909    0.02809 =
         0.02268    0.00774   -0.00571    0.00153
F1    4    0.241386    0.194045    0.649959   -21.00000    0.05032    0.03550 =
         0.03617   -0.00007   -0.02162   -0.00363
F2    4    0.264835    0.091764    0.643957   -21.00000    0.06543    0.04759 =
         0.03385    0.01187   -0.00703    0.01935
F3    4    0.079206    0.132091    0.643809   -21.00000    0.05587    0.04817 =
         0.03155    0.00871    0.01544    0.00247
C3    1    0.090852    0.094623    0.515244   -21.00000    0.02705    0.02764 =
         0.03635   -0.00322   -0.00692   -0.00138
F4    4    0.107277    0.085331    0.452645   -21.00000    0.04754    0.03778 =
         0.03402   -0.01210   -0.00801    0.00489
F5    4   -0.029312    0.111351    0.520301   -21.00000    0.02476    0.03900 =
         0.06028   -0.00255   -0.00523   -0.00360
F6    4    0.109998    0.039854    0.546196   -21.00000    0.04870    0.02385 =
         0.04270   -0.00506   -0.00445   -0.00175
C4    1    0.316710    0.136996    0.520109   -21.00000    0.02881    0.02760 =
         0.04938    0.01080    0.00534    0.00425
F7    4    0.318521    0.157324    0.457951   -21.00000    0.04096    0.04196 =
         0.04308    0.01483    0.01590    0.01171
F8    4    0.354830    0.076073    0.522199   -21.00000    0.02950    0.03469 =
         0.04999    0.01052    0.00550    0.01757
F9    4    0.405932    0.168014    0.556115   -21.00000    0.02338    0.03781 =
         0.08238    0.00301   -0.00552   -0.00239
PART 0
RESI 0
 
REM rem dsr put oc(cf3)3 with O1 c1 c2 on O1_3 C1_3 Q11 part 2 occ -21 resi
 
RESI 4 CCF3
PART 1 31
O1    3    0.087142    0.233810    0.400725    31.00000    0.01744    0.03238 =
         0.01324   -0.00273   -0.00389    0.00667
C1    1    0.036236    0.231773    0.337392    31.00000    0.01851    0.03340 =
         0.01413   -0.00329   -0.00487    0.00490
C2    1    0.150239    0.233114    0.294451    31.00000    0.04054    0.04202 =
         0.01791   -0.00479   -0.00337    0.01046
F1    4    0.121357    0.212304    0.232786    31.00000    0.04329    0.05704 =
         0.01107   -0.00539    0.00167    0.00181
F2    4    0.246155    0.194152    0.319539    31.00000    0.02675    0.05124 =
         0.02965   -0.00313   -0.00261    0.01808
F3    4    0.196309    0.292286    0.290367    31.00000    0.04539    0.04903 =
         0.02850    0.00197    0.00575   -0.01419
C3    1   -0.052457    0.288638    0.318316    31.00000    0.03696    0.04003 =
         0.01996   -0.00458   -0.00722    0.01151
F4    4   -0.005039    0.344685    0.345746    31.00000    0.04897    0.02462 =
         0.02846   -0.00241   -0.00845    0.00804
F5    4   -0.068303    0.300405    0.253642    31.00000    0.04581    0.05134 =
         0.01472   -0.00033   -0.00752    0.02087
F6    4   -0.169429    0.279640    0.339323    31.00000    0.02375    0.06568 =
         0.03144   -0.00013   -0.00457    0.01789
C4    1   -0.039491    0.168734    0.325754    31.00000    0.03365    0.04548 =
         0.02276   -0.00163   -0.01120   -0.00598
F7    4   -0.115513    0.159332    0.375177    31.00000    0.03016    0.04803 =
         0.03409   -0.00131    0.00280   -0.01964
F8    4   -0.110971    0.167838    0.268912    31.00000    0.05000    0.04731 =
         0.03344   -0.00168   -0.02276   -0.00449
F9    4    0.041876    0.118765    0.324755    31.00000    0.05572    0.03184 =
         0.03822   -0.00764   -0.01129    0.00633
RESI 0
PART 0
 
RESI 6 CCF3
PART 2 -31
O1    3    0.075533    0.237103    0.399070   -31.00000    0.01744    0.03238 =
         0.01324   -0.00273   -0.00389    0.00667
C1    1    0.029033    0.234315    0.336388   -31.00000    0.01851    0.03340 =
         0.01413   -0.00329   -0.00487    0.00490
C2    1    0.019278    0.302692    0.307483   -31.00000    0.04473    0.03960 =
         0.01975    0.00074   -0.00915    0.00429
F1    4   -0.034362    0.338077    0.351374   -31.00000    0.06035    0.03780 =
         0.03318   -0.00171   -0.00985    0.01414
F2    4   -0.056099    0.301603    0.252943   -31.00000    0.06816    0.05416 =
         0.03253    0.00429   -0.02290    0.01040
F3    4    0.129670    0.325765    0.293427   -31.00000    0.05874    0.04181 =
         0.03525    0.00758   -0.00133   -0.00886
C3    1    0.121731    0.194196    0.298126   -31.00000    0.02948    0.04353 =
         0.01594   -0.00458   -0.00067    0.01097
F4    4    0.113063    0.132198    0.311298   -31.00000    0.05364    0.03897 =
         0.03411   -0.00516    0.00283    0.01713
F5    4    0.241652    0.211828    0.314304   -31.00000    0.02202    0.05781 =
         0.02817   -0.00330    0.00428    0.01597
F6    4    0.100112    0.199536    0.234100   -31.00000    0.04329    0.06296 =
         0.01813   -0.00900    0.00303    0.01374
C4    1   -0.103828    0.202370    0.332282   -31.00000    0.02584    0.05925 =
         0.01563   -0.00708   -0.00402   -0.00499
F7    4   -0.105734    0.150926    0.370379   -31.00000    0.04624    0.06520 =
         0.03298    0.00152   -0.00598   -0.01213
F8    4   -0.134102    0.179897    0.271736   -31.00000    0.03084    0.07119 =
         0.02239   -0.01412   -0.00872   -0.01186
F9    4   -0.194296    0.242044    0.347169   -31.00000    0.02049    0.07883 =
         0.03105   -0.01332   -0.00650    0.00576
PART 0
RESI 0
 
REM REM DSR PUT OC(CF3)3 WITH O1 C1 C4 ON O1_4A C1_4A Q14 PART 2 OCC -31
REM RESI CCF3
 
HKLF 4
 
REM  p21c in P2(1)/c
REM R1 =  0.0402 for    7085 Fo > 4sig(Fo)  and  0.0797 for all   10786 data
REM    921 parameters refined using   2863 restraints
 
END 
 
WGHT      0.0498      0.0000 

REM Highest difference peak  0.400,  deepest hole -0.681,  1-sigma level  0.073
Q1    1   0.6917  0.6020  0.2177  11.00000  0.05    0.40
Q2    1   0.6803  0.5286  0.2073  11.00000  0.05    0.36
Q3    1   0.7428  0.5690  0.2124  11.00000  0.05    0.36
Q4    1   0.7401  0.4707  0.0667  11.00000  0.05    0.34
Q5    1   0.2767  0.3717  0.4869  11.00000  0.05    0.34
Q6    1   0.6854  0.3931  0.0904  11.00000  0.05    0.32
Q7    1   0.5918  0.5883  0.2735  11.00000  0.05    0.32
Q8    1   0.1834  0.3571  0.4986  11.00000  0.05    0.32
Q9    1   0.6395  0.4369  0.3131  11.00000  0.05    0.31
Q10   1  -0.1288  0.2537  0.4775  11.00000  0.05    0.30
Q11   1  -0.1806  0.3167  0.5160  11.00000  0.05    0.30
Q12   1   0.5941  0.5399  0.2788  11.00000  0.05    0.30
Q13   1  -0.1363  0.2689  0.5124  11.00000  0.05    0.30
Q14   1   0.5861  0.6684  0.2341  11.00000  0.05    0.30
Q15   1   0.5885  0.5159  0.2607  11.00000  0.05    0.29
Q16   1   0.1387  0.3034  0.4748  11.00000  0.05    0.28
Q17   1   0.3483  0.5656  0.2460  11.00000  0.05    0.28
Q18   1  -0.1713  0.2799  0.5601  11.00000  0.05    0.28
Q19   1  -0.1122  0.2226  0.4987  11.00000  0.05    0.28
Q20   1   0.8800  0.5410  0.3471  11.00000  0.05    0.28
