
REM Solution 1  R1  0.226,  Alpha = 0.0301  in P2(1)/n
REM C26 F6 S
TITL p21n in P2(1)/n
 p21n_cf3.res created by SHELXL-2016/4 at 10:01:12 on 03-Sep-2016
CELL  0.71073  17.2012   6.5879  17.8587   90.000   98.492   90.000
ZERR    4.00   0.0063   0.0029   0.0062   0.000   0.020   0.000
LATT  1
SYMM 1/2-X, 1/2+Y, 1/2-Z
SFAC  C  H  F  S  O
UNIT  1  2  3  4  5
TEMP -173.150
SIZE 0.037 0.122 0.146
L.S.  8
BOND $H
LIST 4
FMAP 2
PLAN 20
REM ACTA
CONF
WGHT    0.065900    4.305900
FVAR       0.31575
S1    4    0.358436    1.025641    0.310174    11.00000    0.01154    0.00859 =
         0.01904    0.00131    0.00009    0.00074
C1    1    0.090774   -0.305014    0.513662    11.00000    0.03524    0.02618 =
         0.02190    0.00119    0.01110   -0.01263
F1X   3    0.044826   -0.252226    0.562305    11.00000   10.06000
F1Y   3    0.129264   -0.462912    0.549633    11.00000   10.06000
F1Z   3    0.058526   -0.393218    0.454014    11.00000   10.06000
O1    5    0.356722    0.381854    0.502677    11.00000    0.02317    0.02877 =
         0.01376    0.00253   -0.00379   -0.00968
O2    5    0.317414    0.656255    0.254786    11.00000    0.01319    0.01480 =
         0.01037   -0.00105   -0.00103   -0.00184
O3    5    0.448561    0.743910    0.255534    11.00000    0.01504    0.00863 =
         0.01322   -0.00441    0.00255   -0.00484
C2    1    0.144877   -0.136112    0.498213    11.00000    0.03157    0.01826 =
         0.02094   -0.00121    0.01009   -0.00288
C3    1    0.216018   -0.110930    0.544988    11.00000    0.03463    0.01610 =
         0.01480    0.00340    0.00754   -0.00048
AFIX  43
H3    2    0.231465   -0.202284    0.585624    11.00000   -1.20000
AFIX   0
C4    1    0.264570    0.050279    0.531571    11.00000    0.02069    0.01617 =
         0.01420    0.00003    0.00213   -0.00151
AFIX  43
H4    2    0.313127    0.070195    0.563698    11.00000   -1.20000
AFIX   0
C5    1    0.242214    0.182912    0.471074    11.00000    0.01811    0.01149 =
         0.01288   -0.00288    0.00451   -0.00305
C6    1    0.169995    0.152599    0.423947    11.00000    0.02119    0.01728 =
         0.01472    0.00239    0.00286   -0.00341
AFIX  43
H6    2    0.154328    0.243052    0.383071    11.00000   -1.20000
AFIX   0
C7    1    0.121266   -0.008969    0.436727    11.00000    0.02363    0.02351 =
         0.01907   -0.00193    0.00482   -0.00821
AFIX  43
H7    2    0.073119   -0.031796    0.404283    11.00000   -1.20000
AFIX   0
C8    1    0.294819    0.356005    0.458995    11.00000    0.01692    0.01740 =
         0.00866   -0.00158    0.00152   -0.00171
C9    1    0.271610    0.493129    0.392463    11.00000    0.01309    0.01163 =
         0.01414    0.00104    0.00264    0.00008
AFIX  23
H9A   2    0.219283    0.551592    0.396118    11.00000   -1.20000
H9B   2    0.266638    0.410970    0.345581    11.00000   -1.20000
AFIX   0

C10   1    0.329053    0.665970    0.385987    11.00000    0.01194    0.01078 =
         0.01108   -0.00125   -0.00109    0.00159
AFIX  13
H10   2    0.335303    0.753735    0.432173    11.00000   -1.20000
AFIX   0
C11   1    0.409638    0.596060    0.367147    11.00000    0.01265    0.00755 =
         0.01146   -0.00225   -0.00130    0.00101
AFIX  13
H11   2    0.426745    0.461871    0.390062    11.00000   -1.20000
AFIX   0
C12   1    0.397044    0.593802    0.278952    11.00000    0.01671    0.00751 =
         0.01513    0.00128    0.00191   -0.00024
AFIX  13
H12   2    0.407581    0.456487    0.258797    11.00000   -1.20000
AFIX   0
C13   1    0.301443    0.790557    0.314200    11.00000    0.01568    0.01050 =
         0.01365    0.00019    0.00021    0.00346
AFIX  13
H13   2    0.243958    0.820756    0.309557    11.00000   -1.20000
AFIX   0
C14   1    0.471763    0.763344    0.385411    11.00000    0.01436    0.01294 =
         0.01424    0.00090   -0.00228   -0.00044
AFIX  23
H14A  2    0.525741    0.707265    0.392052    11.00000   -1.20000
H14B  2    0.463927    0.840467    0.431285    11.00000   -1.20000
AFIX   0
C15   1    0.454877    0.894631    0.313733    11.00000    0.01119    0.01013 =
         0.01267   -0.00300   -0.00041   -0.00025
C16   1    0.513392    1.053842    0.301239    11.00000    0.01070    0.01122 =
         0.01426    0.00086    0.00016    0.00015
C17   1    0.547337    1.174947    0.362256    11.00000    0.01611    0.01528 =
         0.01584   -0.00021    0.00310   -0.00058
AFIX  43
H17   2    0.534739    1.150953    0.411527    11.00000   -1.20000
AFIX   0
C18   1    0.598898    1.328571    0.350857    11.00000    0.01768    0.01481 =
         0.02111   -0.00575    0.00288   -0.00242
AFIX  43
H18   2    0.621281    1.411223    0.392060    11.00000   -1.20000
AFIX   0
C19   1    0.617959    1.361924    0.278867    11.00000    0.02075    0.01713 =
         0.03191   -0.00051    0.00953    0.00053
C20   1    0.586218    1.244595    0.218879    11.00000    0.02792    0.02258 =
         0.02589   -0.00165    0.00964   -0.00758
AFIX  43
H20   2    0.599436    1.269143    0.169875    11.00000   -1.20000
AFIX   0

C21   1    0.534451    1.089067    0.230083    11.00000    0.02889    0.01673 =
         0.01992   -0.00331    0.00619   -0.00545
AFIX  43
H21   2    0.513207    1.005849    0.188619    11.00000   -1.20000
AFIX   0
C22   1    0.672727    1.533480    0.267396    11.00000    0.03090    0.02446 =
         0.04394   -0.01033    0.02148   -0.01086
F1A   3    0.718723    1.499935    0.218918    11.00000   10.06000
F2A   3    0.739005    1.522017    0.325785    11.00000   10.06000
F3A   3    0.653255    1.705814    0.295063    11.00000   10.06000

rem dsr put CF6 on C22 split

HKLF 4




REM  p21n in P2(1)/n
REM R1 =  0.1840 for    3554 Fo > 4sig(Fo)  and  0.1974 for all    4254 data
REM    253 parameters refined using      0 restraints

END 
 
WGHT      0.2000      0.0000 

REM Highest difference peak  4.835,  deepest hole -2.467,  1-sigma level  0.316
Q1    1   0.6365  1.6529  0.2016  11.00000  0.05    4.83
Q2    1   0.0194 -0.3163  0.4617  11.00000  0.05    4.54
Q3    1   0.6798  1.5623  0.2011  11.00000  0.05    3.54
Q4    1   0.7405  1.4883  0.2660  11.00000  0.05    2.84
Q5    1   0.6859  1.6697  0.3235  11.00000  0.05    2.59
Q6    1   0.0216 -0.2499  0.5241  11.00000  0.05    2.46
Q7    1   0.1161 -0.4807  0.5127  11.00000  0.05    2.30
Q8    1   0.0847 -0.4508  0.4439  11.00000  0.05    1.95
Q9    1   0.0664 -0.2691  0.5872  11.00000  0.05    1.75
Q10   1   0.1321 -0.4434  0.5782  11.00000  0.05    1.50
Q11   1   0.3381  0.3941  0.5006  11.00000  0.05    0.98
Q12   1   0.2394 -0.0148  0.5419  11.00000  0.05    0.90
Q13   1   0.4029  0.5832  0.3280  11.00000  0.05    0.82
Q14   1   0.5245  1.0872  0.2549  11.00000  0.05    0.80
Q15   1   0.5758  1.2623  0.3576  11.00000  0.05    0.76
Q16   1   0.5630  1.2012  0.2247  11.00000  0.05    0.75
Q17   1   0.6142  1.3492  0.2968  11.00000  0.05    0.74
Q18   1   0.3603  0.6232  0.3858  11.00000  0.05    0.72
Q19   1   0.5928  1.2852  0.2445  11.00000  0.05    0.68
Q20   1   0.3199  0.7306  0.3450  11.00000  0.05    0.67
