
REM Solution 1  R1  0.226,  Alpha = 0.0301  in P2(1)/n
REM C26 F6 S
TITL p21n in P2(1)/n
 p21n_cf3.res created by SHELXL-2016/4 at 11:51:38 on 03-Sep-2016
CELL  0.71073  17.2012   6.5879  17.8587   90.000   98.492   90.000
ZERR    4.00   0.0063   0.0029   0.0062   0.000   0.020   0.000
LATT  1
SYMM 1/2-X, 1/2+Y, 1/2-Z
SFAC  C  H  F  S  O
UNIT  1  2  3  4  5
TEMP -173.150
SIZE 0.037 0.122 0.146
L.S.  8
BOND $H
LIST 6
FMAP 2
PLAN 20
REM ACTA
CONF
WGHT    0.065900    4.305900
FVAR       0.31578
S1    4    0.358437    1.025640    0.310173    11.00000    0.01154    0.00859 =
         0.01904    0.00130    0.00008    0.00074
C1    1    0.090787   -0.304999    0.513663    11.00000    0.03525    0.02617 =
         0.02195    0.00121    0.01110   -0.01263
F1X   3    0.044808   -0.252227    0.562287    11.00000   10.06000
F1Y   3    0.129256   -0.462884    0.549644    11.00000   10.06000
F1Z   3    0.058714   -0.393612    0.453992    11.00000   10.06000
O1    5    0.356714    0.381845    0.502672    11.00000    0.02320    0.02875 =
         0.01378    0.00253   -0.00379   -0.00966
O2    5    0.317415    0.656265    0.254785    11.00000    0.01320    0.01480 =
         0.01038   -0.00104   -0.00100   -0.00186
O3    5    0.448558    0.743917    0.255531    11.00000    0.01506    0.00862 =
         0.01322   -0.00439    0.00256   -0.00485
C2    1    0.144881   -0.136108    0.498226    11.00000    0.03153    0.01825 =
         0.02099   -0.00123    0.01007   -0.00292
C3    1    0.216020   -0.110943    0.544983    11.00000    0.03462    0.01611 =
         0.01478    0.00346    0.00756   -0.00045
AFIX  43
H3    2    0.231473   -0.202323    0.585609    11.00000   -1.20000
AFIX   0
C4    1    0.264579    0.050292    0.531575    11.00000    0.02065    0.01617 =
         0.01426   -0.00001    0.00215   -0.00152
AFIX  43
H4    2    0.313133    0.070223    0.563706    11.00000   -1.20000
AFIX   0
C5    1    0.242211    0.182915    0.471069    11.00000    0.01808    0.01153 =
         0.01289   -0.00288    0.00453   -0.00304
C6    1    0.170007    0.152607    0.423945    11.00000    0.02120    0.01735 =
         0.01470    0.00237    0.00289   -0.00342
AFIX  43
H6    2    0.154348    0.243046    0.383063    11.00000   -1.20000
AFIX   0
C7    1    0.121265   -0.008953    0.436730    11.00000    0.02359    0.02346 =
         0.01906   -0.00187    0.00483   -0.00815
AFIX  43
H7    2    0.073115   -0.031768    0.404289    11.00000   -1.20000
AFIX   0
C8    1    0.294820    0.355989    0.459001    11.00000    0.01697    0.01744 =
         0.00864   -0.00162    0.00153   -0.00170
C9    1    0.271609    0.493117    0.392465    11.00000    0.01309    0.01159 =
         0.01424    0.00104    0.00266    0.00005
AFIX  23
H9A   2    0.219281    0.551576    0.396120    11.00000   -1.20000
H9B   2    0.266638    0.410956    0.345584    11.00000   -1.20000
AFIX   0

C10   1    0.329050    0.665964    0.385986    11.00000    0.01194    0.01074 =
         0.01110   -0.00124   -0.00108    0.00157
AFIX  13
H10   2    0.335296    0.753735    0.432171    11.00000   -1.20000
AFIX   0
C11   1    0.409650    0.596063    0.367146    11.00000    0.01269    0.00753 =
         0.01144   -0.00225   -0.00130    0.00103
AFIX  13
H11   2    0.426761    0.461875    0.390060    11.00000   -1.20000
AFIX   0
C12   1    0.397051    0.593815    0.278950    11.00000    0.01673    0.00752 =
         0.01516    0.00131    0.00193   -0.00025
AFIX  13
H12   2    0.407589    0.456504    0.258794    11.00000   -1.20000
AFIX   0
C13   1    0.301435    0.790532    0.314201    11.00000    0.01573    0.01044 =
         0.01366    0.00023    0.00022    0.00344
AFIX  13
H13   2    0.243949    0.820726    0.309556    11.00000   -1.20000
AFIX   0
C14   1    0.471767    0.763351    0.385407    11.00000    0.01435    0.01298 =
         0.01426    0.00095   -0.00224   -0.00042
AFIX  23
H14A  2    0.525746    0.707282    0.392047    11.00000   -1.20000
H14B  2    0.463929    0.840468    0.431283    11.00000   -1.20000
AFIX   0
C15   1    0.454880    0.894629    0.313742    11.00000    0.01122    0.01012 =
         0.01270   -0.00300   -0.00038   -0.00024
C16   1    0.513401    1.053868    0.301255    11.00000    0.01069    0.01121 =
         0.01433    0.00087    0.00021    0.00013
C17   1    0.547336    1.174945    0.362249    11.00000    0.01611    0.01532 =
         0.01590   -0.00014    0.00313   -0.00053
AFIX  43
H17   2    0.534732    1.150944    0.411517    11.00000   -1.20000
AFIX   0
C18   1    0.598896    1.328575    0.350869    11.00000    0.01772    0.01485 =
         0.02104   -0.00579    0.00282   -0.00244
AFIX  43
H18   2    0.621269    1.411225    0.392077    11.00000   -1.20000
AFIX   0
C19   1    0.617974    1.361937    0.278862    11.00000    0.02073    0.01713 =
         0.03183   -0.00043    0.00948    0.00057
C20   1    0.586226    1.244606    0.218888    11.00000    0.02805    0.02257 =
         0.02589   -0.00171    0.00973   -0.00760
AFIX  43
H20   2    0.599443    1.269146    0.169883    11.00000   -1.20000
AFIX   0

C21   1    0.534454    1.089085    0.230088    11.00000    0.02890    0.01680 =
         0.01990   -0.00331    0.00623   -0.00547
AFIX  43
H21   2    0.513204    1.005874    0.188624    11.00000   -1.20000
AFIX   0
C22   1    0.672722    1.533486    0.267389    11.00000    0.03092    0.02450 =
         0.04379   -0.01030    0.02139   -0.01088
F1A   3    0.718874    1.499720    0.219074    11.00000   10.06000
F2A   3    0.739015    1.522045    0.325764    11.00000   10.06000
F3A   3    0.653270    1.705770    0.295083    11.00000   10.06000

rem dsr put CF6 on C22 split

HKLF 4




REM  p21n in P2(1)/n
REM R1 =  0.1839 for    3554 Fo > 4sig(Fo)  and  0.1974 for all    4254 data
REM    253 parameters refined using      0 restraints

END  
     
WGHT      0.2000      0.0000 

REM Highest difference peak  4.833,  deepest hole -2.469,  1-sigma level  0.316
Q1    1   0.6365  1.6529  0.2016  11.00000  0.05    4.83
Q2    1   0.0194 -0.3166  0.4617  11.00000  0.05    4.55
Q3    1   0.6799  1.5621  0.2012  11.00000  0.05    3.55
Q4    1   0.7406  1.4883  0.2662  11.00000  0.05    2.82
Q5    1   0.6859  1.6697  0.3235  11.00000  0.05    2.59
Q6    1   0.0216 -0.2499  0.5241  11.00000  0.05    2.45
Q7    1   0.1162 -0.4807  0.5128  11.00000  0.05    2.30
Q8    1   0.0850 -0.4513  0.4437  11.00000  0.05    1.90
Q9    1   0.0663 -0.2691  0.5872  11.00000  0.05    1.76
Q10   1   0.1321 -0.4434  0.5782  11.00000  0.05    1.50
Q11   1   0.3381  0.3943  0.5006  11.00000  0.05    0.97
Q12   1   0.2394 -0.0147  0.5420  11.00000  0.05    0.90
Q13   1   0.4030  0.5831  0.3281  11.00000  0.05    0.82
Q14   1   0.5245  1.0872  0.2546  11.00000  0.05    0.80
Q15   1   0.5757  1.2622  0.3576  11.00000  0.05    0.76
Q16   1   0.5631  1.2011  0.2247  11.00000  0.05    0.75
Q17   1   0.6142  1.3490  0.2970  11.00000  0.05    0.75
Q18   1   0.3604  0.6232  0.3859  11.00000  0.05    0.72
Q19   1   0.5928  1.2852  0.2446  11.00000  0.05    0.68
Q20   1   0.3199  0.7306  0.3449  11.00000  0.05    0.67
