TITL p21c in P2(1)/c
    test-data/beispiel/11.res
    created by SHELXL-2016/6 at 08:32:31 on 06-Nov-2016
CELL 0.71073 10.5086 20.9035 20.5072 90 94.13 90
ZERR 4 0.0003 0.0005 0.0005 0 0.001 0
LATT 1
SYMM -X,0.5+Y,0.5-Z
SFAC  C  H  O  F  Al  Ga
UNIT  1  2  3  4  5  6
LIST 6 ! automatically inserted. Change 6 to 4 for CHECKCIF!!

L.S.  10
PLAN  20
TEMP -173.18
BOND $H
fmap 2

SADI_CCF3 0.02 C1 C2 C1 C3 C1 C4
SADI_CCF3 0.02 F1 C2 F2 C2 F3 C2 F4 C3 F5 C3 F6 C3 F7 C4 F8 C4 F9 C4
SADI_CCF3 0.04 C2 C3 C3 C4 C2 C4
SADI_CCF3 0.04 O1 C2 O1 C3 O1 C4
SADI_CCF3 0.04 F1 F2 F2 F3 F3 F1 F4 F5 F5 F6 F6 F4 F7 F8 F8 F9 F9 F7
DFIX_CCF3 1.35 O1 C1
SADI_CCF3 0.1 F1 C1 F2 C1 F3 C1 F4 C1 F5 C1 F6 C1 F7 C1 F8 C1 F9 C1
SIMU_CCF3 O1 > F9
RIGU_CCF3 O1 > F9
WGHT    0.049400    0.393100
FVAR       0.08684   0.48165   0.55504
RESI 5 CCF3
PART 0
O1    3    0.118573    0.335800    0.493884    11.00000    0.04000
C1    1    0.224012    0.376239    0.504695    11.00000    0.04000
C2    1    0.326834    0.358862    0.455497    11.00000    0.04000
F1    4    0.388020    0.304429    0.472859    11.00000    0.04000
F2    4    0.413599    0.405303    0.450204    11.00000    0.04000
F3    4    0.266138    0.349140    0.395567    11.00000    0.04000
C3    1    0.180566    0.447873    0.495348    11.00000    0.04000
F4    4    0.074605    0.458839    0.526215    11.00000    0.04000
F5    4    0.152004    0.459231    0.430784    11.00000    0.04000
F6    4    0.270990    0.489580    0.517315    11.00000    0.04000
C4    1    0.277547    0.363853    0.576891    11.00000    0.04000
F7    4    0.201859    0.390649    0.619499    11.00000    0.04000
F8    4    0.395231    0.389300    0.587224    11.00000    0.04000
F9    4    0.284288    0.301034    0.589301    11.00000    0.04000
AFIX   0
PART 0
RESI 0

REM rem dsr replace oc(Cf3)3 with o1 c1 c2 on o1 c1 C2 paRt 0 reSi
GA1   6    0.639512    0.561734    0.237759    11.00000    0.02409    0.02507 =
         0.02492    0.00001   -0.00157    0.00159
AL1   5    0.064279    0.260189    0.478726    11.00000    0.01607    0.01971 =
         0.01369   -0.00007   -0.00220    0.00123
O2    3   -0.097361    0.260914    0.489312    11.00000    0.01704    0.02602 =
         0.01668   -0.00408    0.00042    0.00075
F10   4   -0.362564    0.278260    0.447767    11.00000    0.02262    0.04197 =
         0.02737    0.00099   -0.01009    0.00187
F11   4   -0.404352    0.257826    0.547035    11.00000    0.02064    0.04884 =
         0.03560   -0.00157    0.00538   -0.00224
F12   4   -0.301415    0.189576    0.492527    11.00000    0.02698    0.02725 =
         0.04227   -0.00395   -0.00178   -0.00537
F13   4   -0.175175    0.202428    0.610081    11.00000    0.04032    0.04369 =
         0.02847    0.01319    0.00117    0.00375
F14   4   -0.031508    0.275541    0.616636    11.00000    0.02287    0.05778 =
         0.02206   -0.00630   -0.00809    0.00744
F15   4   -0.222320    0.297021    0.641455    11.00000    0.03257    0.06802 =
         0.01960   -0.00712    0.00373    0.01571
F16   4   -0.313262    0.377296    0.540562    11.00000    0.02365    0.03301 =
         0.04460   -0.00660   -0.00018    0.00941
F17   4   -0.189454    0.376067    0.461255    11.00000    0.04569    0.02834 =
         0.03493    0.00604    0.00449    0.00193
F18   4   -0.110402    0.386670    0.560072    11.00000    0.02686    0.03292 =
         0.04599   -0.01525   -0.00145   -0.00432
C5    1   -0.187320    0.282840    0.527511    11.00000    0.01753    0.02255 =
         0.01760   -0.00033   -0.00197    0.00127
C6    1   -0.315944    0.251680    0.503983    11.00000    0.02203    0.02826 =
         0.02379    0.00051    0.00086    0.00063
C7    1   -0.154284    0.264425    0.600372    11.00000    0.02023    0.03751 =
         0.02232   -0.00169   -0.00019    0.00589
C8    1   -0.201088    0.356759    0.522193    11.00000    0.02159    0.02903 =
         0.02942   -0.00587    0.00042    0.00038
C34   1    0.369667    0.548722    0.213201    11.00000    0.02002    0.02267 =
         0.03066   -0.00486   -0.00288    0.00109
AFIX  43
H34   2    0.340277    0.506499    0.203867    11.00000   -1.20000
AFIX   0
C33   1    0.380595    0.569538    0.277914    11.00000    0.01602    0.03259 =
         0.02434    0.00125   -0.00203    0.00404
C32   1    0.425163    0.631358    0.290542    11.00000    0.01551    0.03210 =
         0.02652   -0.00920   -0.00396    0.00564
AFIX  43
H32   2    0.435569    0.645814    0.334522    11.00000   -1.20000
AFIX   0
C35   1    0.400675    0.588138    0.161618    11.00000    0.01800    0.02839 =
         0.02230   -0.00162   -0.00591    0.00281
C30   1    0.443759    0.649855    0.176362    11.00000    0.02047    0.02440 =
         0.02617    0.00462   -0.00250    0.00396
AFIX  43
H30   2    0.466106    0.677169    0.141967    11.00000   -1.20000
AFIX   0
C36   1    0.383692    0.565129    0.092081    11.00000    0.04288    0.03612 =
         0.02265   -0.00271   -0.00384    0.00018
AFIX 137
H36A  2    0.294935    0.571630    0.075318    11.00000   -1.50000
H36B  2    0.404669    0.519506    0.090386    11.00000   -1.50000
H36C  2    0.440401    0.589252    0.065208    11.00000   -1.50000
AFIX   0
C31   1    0.454813    0.672454    0.240678    11.00000    0.01668    0.02499 =
         0.03561   -0.00433   -0.00392    0.00397
C37   1    0.341174    0.527435    0.332511    11.00000    0.02649    0.04351 =
         0.02836    0.00161    0.00199   -0.00431
AFIX 137
H37A  2    0.409102    0.526779    0.367849    11.00000   -1.50000
H37B  2    0.326036    0.483883    0.316044    11.00000   -1.50000
H37C  2    0.262724    0.544236    0.349179    11.00000   -1.50000
AFIX   0
C38   1    0.494329    0.740494    0.255550    11.00000    0.03643    0.02785 =
         0.04822   -0.00741   -0.00692   -0.00106
AFIX 137
H38A  2    0.530170    0.759354    0.217142    11.00000   -1.50000
H38B  2    0.558757    0.741071    0.292555    11.00000   -1.50000
H38C  2    0.419763    0.765313    0.266627    11.00000   -1.50000
AFIX   0

C21   1    0.721924    0.447959    0.167567    11.00000    0.02894    0.02289 =
         0.02629   -0.00353   -0.00156    0.00703
C20   1    0.838307    0.474769    0.190358    11.00000    0.02351    0.03004 =
         0.02904    0.00416    0.00449    0.00692
AFIX  43
H20   2    0.894206    0.490744    0.159793    11.00000   -1.20000
AFIX   0
C23   1    0.673437    0.429164    0.280504    11.00000    0.03011    0.01956 =
         0.02963    0.00330    0.00334    0.00514
C25   1    0.874345    0.478629    0.256922    11.00000    0.01984    0.02791 =
         0.03500    0.00289   -0.00745    0.00371
C22   1    0.640998    0.425697    0.213111    11.00000    0.02697    0.02173 =
         0.03413   -0.00078   -0.00321    0.00171
AFIX  43
H22   2    0.561270    0.407576    0.198155    11.00000   -1.20000
AFIX   0
C28   1    0.685651    0.443535    0.095293    11.00000    0.05023    0.03675 =
         0.02585   -0.00654   -0.00452    0.00298
AFIX 137
H28A  2    0.672575    0.486648    0.077268    11.00000   -1.50000
H28B  2    0.606657    0.418818    0.088036    11.00000   -1.50000
H28C  2    0.754123    0.422261    0.073557    11.00000   -1.50000
AFIX   0
C27   1    0.588443    0.401804    0.328953    11.00000    0.04268    0.04051 =
         0.03955    0.00852    0.00623   -0.00208
AFIX 137
H27A  2    0.582659    0.431822    0.365328    11.00000   -1.50000
H27B  2    0.623847    0.361109    0.345607    11.00000   -1.50000
H27C  2    0.503168    0.394565    0.307649    11.00000   -1.50000
AFIX   0
C24   1    0.790648    0.456439    0.301102    11.00000    0.03203    0.02720 =
         0.02310    0.00018   -0.00469    0.00891
AFIX  43
H24   2    0.813779    0.459912    0.346607    11.00000   -1.20000
AFIX   0
C26   1    1.002683    0.505437    0.281392    11.00000    0.02879    0.06257 =
         0.05044    0.00703   -0.01300   -0.00258
AFIX 137
H26A  2    1.045713    0.523054    0.244541    11.00000   -1.50000
H26B  2    1.055025    0.471267    0.302162    11.00000   -1.50000
H26C  2    0.990474    0.539361    0.313329    11.00000   -1.50000
AFIX   0

SAME_CF3 O1 > F9
SIMU_CF3 O1 > F9
RIGU_CF3 O1 > F9
EADP O1_1 O1_2
EADP C1_1 C1_2
SADI Al1_0 O1_1 Al1_0 O1_2
SADI Al1_0 C1_1 Al1_0 C1_2
RESI 1 CF3
SAME_0 O1 C1 > F9
PART 1 21
O1    3    0.157783    0.210038    0.529781    21.00000    0.02166    0.02187 =
         0.01953    0.00166   -0.00369    0.00460
C1    1    0.198712    0.149838    0.543623    21.00000    0.02003    0.01955 =
         0.02269    0.00150   -0.00430    0.00266
C2    1    0.283457    0.125031    0.490403    21.00000    0.04341    0.02685 =
         0.02802    0.00239   -0.00024    0.00934
F1    4    0.356570    0.075414    0.511589    21.00000    0.04661    0.02791 =
         0.02993   -0.00509   -0.00248    0.01217
F2    4    0.359549    0.170630    0.471386    21.00000    0.04051    0.03671 =
         0.04606    0.00741    0.01872    0.01193
F3    4    0.212130    0.104107    0.438124    21.00000    0.08020    0.03918 =
         0.02905   -0.01184   -0.02116    0.02453
C3    1    0.086709    0.103680    0.549843    21.00000    0.02434    0.03266 =
         0.06183    0.01321   -0.00709    0.00269
F4    4    0.117317    0.041529    0.547446    21.00000    0.03438    0.02888 =
         0.10515    0.01876   -0.00883   -0.00042
F5    4   -0.005030    0.114177    0.501992    21.00000    0.03104    0.03578 =
         0.09583    0.00900   -0.03255   -0.00905
F6    4    0.032487    0.113017    0.606777    21.00000    0.04141    0.05281 =
         0.08344    0.03197    0.03077    0.00255
C4    1    0.280621    0.152742    0.609976    21.00000    0.03719    0.02751 =
         0.02353    0.00599   -0.00778    0.00781
F7    4    0.222514    0.188215    0.652437    21.00000    0.06677    0.04929 =
         0.01615    0.00445   -0.00499    0.02377
F8    4    0.297801    0.094342    0.636973    21.00000    0.05164    0.03159 =
         0.02800    0.01198   -0.00937    0.01339
F9    4    0.394929    0.177207    0.602385    21.00000    0.02819    0.03922 =
         0.04518   -0.00369   -0.01882    0.00190
PART 0
RESI 0

SADI_CF3 C1 C2 C1 C3 C1 C4
SADI_CF3 C2 C3 C3 C4 C2 C4
SADI_CF3 O1 C2 O1 C3 O1 C4
SADI_CF3 F1 C2 F2 C2 F3 C2 F4 C3 F5 C3 F6 C3 F7 C4 F8 C4 F9 C4
SADI_CF3 F1 F2 F2 F3 F3 F1 F4 F5 F5 F6 F6 F4 F7 F8 F8 F9 F9 F7
SIMU_CF3 O1 > F9
RIGU_CF3 O1 > F9
RESI 2 CF3
PART 2 -21
O1    3    0.141344    0.206308    0.531299   -21.00000    0.02166    0.02187 =
         0.01953    0.00166   -0.00369    0.00460
C1    1    0.183012    0.146705    0.545787   -21.00000    0.02003    0.01955 =
         0.02269    0.00150   -0.00430    0.00266
C2    1    0.192818    0.140422    0.621318   -21.00000    0.04229    0.02785 =
         0.02439    0.00658   -0.00771    0.00145
F1    4    0.245085    0.192484    0.649317   -21.00000    0.05184    0.03855 =
         0.03226   -0.00622   -0.01850   -0.00449
F2    4    0.264470    0.090349    0.642279   -21.00000    0.06245    0.04489 =
         0.04029    0.01610   -0.01336    0.01546
F3    4    0.078518    0.131944    0.643552   -21.00000    0.05689    0.04934 =
         0.03359    0.01033    0.01877    0.00403
C3    1    0.091418    0.095093    0.515517   -21.00000    0.02707    0.02875 =
         0.03648   -0.00069   -0.00505    0.00105
F4    4    0.107901    0.085459    0.452562   -21.00000    0.05342    0.03840 =
         0.03397   -0.01258   -0.00957    0.00635
F5    4   -0.029994    0.111988    0.520043   -21.00000    0.02224    0.04375 =
         0.06271   -0.00437   -0.00563   -0.00363
F6    4    0.108939    0.038965    0.546008   -21.00000    0.05111    0.02304 =
         0.04722   -0.00047   -0.00606   -0.00516
C4    1    0.316433    0.136974    0.520010   -21.00000    0.03131    0.02705 =
         0.04987    0.01059    0.00646    0.00408
F7    4    0.319297    0.157478    0.458248   -21.00000    0.04407    0.04409 =
         0.04422    0.01663    0.01974    0.01350
F8    4    0.353227    0.075373    0.520639   -21.00000    0.02927    0.03635 =
         0.06180    0.01571    0.01025    0.02126
F9    4    0.405847    0.168124    0.556568   -21.00000    0.02245    0.03798 =
         0.08982    0.00418   -0.00655   -0.00318
PART 0
RESI 0

RESI 3 CF3
SIMU O1_3 > F9_3
PART 1 31
O1    3    0.083862    0.234106    0.400073    31.00000    0.02033    0.03828 =
         0.01086   -0.00526   -0.00413    0.00625
C1    1    0.035854    0.231583    0.336683    31.00000    0.01798    0.03156 =
         0.01641    0.00019   -0.00857    0.00473
C2    1    0.150782    0.233055    0.294256    31.00000    0.03593    0.03956 =
         0.01753   -0.00479   -0.00191    0.00658
F1    4    0.121415    0.211889    0.233274    31.00000    0.04345    0.05916 =
         0.01292   -0.00597    0.00031    0.00293
F2    4    0.245007    0.195110    0.320055    31.00000    0.02813    0.05765 =
         0.02837   -0.00292   -0.00238    0.01481
F3    4    0.196843    0.291912    0.290368    31.00000    0.04354    0.04746 =
         0.02847    0.00175    0.00567   -0.01133
C3    1   -0.052761    0.288632    0.318643    31.00000    0.03229    0.03988 =
         0.01978   -0.00325   -0.00494    0.01177
F4    4   -0.005619    0.342470    0.346993    31.00000    0.05098    0.02898 =
         0.02887   -0.00300   -0.01323    0.01405
F5    4   -0.067068    0.300176    0.254200    31.00000    0.04195    0.04330 =
         0.01882   -0.00144   -0.00455    0.01541
F6    4   -0.169095    0.279969    0.339272    31.00000    0.02467    0.06317 =
         0.03139    0.00012   -0.00475    0.01737
C4    1   -0.039057    0.168494    0.325659    31.00000    0.03147    0.04115 =
         0.02354   -0.00270   -0.01014   -0.00326
F7    4   -0.116195    0.158460    0.373168    31.00000    0.03056    0.05131 =
         0.03198   -0.00229   -0.00158   -0.01716
F8    4   -0.110130    0.168230    0.268631    31.00000    0.04710    0.04860 =
         0.03175   -0.00049   -0.02063   -0.00590
F9    4    0.041029    0.118704    0.324933    31.00000    0.05381    0.03273 =
         0.03782   -0.00740   -0.01001    0.00493
RESI 0
PART 0

SADI_CF3 0.02 C1 C2 C1 C3 C1 C4
SADI_CF3 0.02 F1 C2 F2 C2 F3 C2 F4 C3 F5 C3 F6 C3 F7 C4 F8 C4 F9 C4
SADI_CF3 0.04 C2 C3 C3 C4 C2 C4
SADI_CF3 0.04 O1 C2 O1 C3 O1 C4
SADI_CF3 0.04 F1 F2 F2 F3 F3 F1 F4 F5 F5 F6 F6 F4 F7 F8 F8 F9 F9 F7
DFIX_CF3 1.35 O1 C1
SADI_CF3 0.1 F1 C1 F2 C1 F3 C1 F4 C1 F5 C1 F6 C1 F7 C1 F8 C1 F9 C1

RESI 4 CF3
PART 2 -31
O1    3    0.079727    0.236625    0.399920   -31.00000    0.02144    0.02643 =
         0.01691   -0.00093   -0.00149    0.00386
C1    1    0.029736    0.234463    0.337121   -31.00000    0.02124    0.03487 =
         0.01187   -0.00827    0.00066    0.00393
C2    1    0.018566    0.302363    0.307473   -31.00000    0.04746    0.04106 =
         0.01764   -0.00020   -0.00789    0.00608
F1    4   -0.032797    0.341271    0.349521   -31.00000    0.06667    0.04314 =
         0.03924   -0.01035   -0.01658    0.02843
F2    4   -0.057625    0.302100    0.252196   -31.00000    0.07840    0.06574 =
         0.02533    0.00662   -0.02601    0.01816
F3    4    0.130480    0.325375    0.293391   -31.00000    0.06265    0.04398 =
         0.03521    0.00846   -0.00148   -0.01300
C3    1    0.121611    0.194306    0.297972   -31.00000    0.02931    0.04633 =
         0.01616   -0.00465   -0.00033    0.00903
F4    4    0.111988    0.131910    0.311425   -31.00000    0.05794    0.03845 =
         0.03422   -0.00585    0.00147    0.01926
F5    4    0.243239    0.210373    0.313795   -31.00000    0.02068    0.07377 =
         0.02705   -0.00325    0.00566    0.01286
F6    4    0.100673    0.200421    0.233453   -31.00000    0.04478    0.06897 =
         0.01592   -0.01200    0.00155    0.01676
C4    1   -0.102936    0.202205    0.332316   -31.00000    0.02937    0.06129 =
         0.01428   -0.00591   -0.00324   -0.00754
F7    4   -0.104975    0.152334    0.373093   -31.00000    0.04308    0.06940 =
         0.04262    0.01385   -0.00601   -0.01864
F8    4   -0.134661    0.179108    0.272066   -31.00000    0.02996    0.07712 =
         0.02354   -0.01675   -0.00921   -0.01163
F9    4   -0.194015    0.242521    0.347017   -31.00000    0.01979    0.08415 =
         0.03129   -0.01470   -0.00658    0.00785
PART 0
RESI 0

REM rem dsr put oc(cf3)3 with o1 c1 c2 c3 c4 on O1_3 c1_3 q6 Q4 q7 resi cf3
REM !PART 2 occ -31

HKLF 4




REM  p21c in P2(1)/c
REM R1 =  0.2709 for    7085 Fo > 4sig(Fo)  and  0.3268 for all   10786 data
REM    954 parameters refined using   3600 restraints

END  
     
WGHT      0.2000      0.0000 

REM Highest difference peak 14.159,  deepest hole-10.078,  1-sigma level  0.614
Q1    1  -0.1826  0.2631  0.3412  11.00000  0.05    1.89
Q2    1   0.3676  0.8169  0.2616  11.00000  0.05    1.66
Q3    1   0.2958  0.3029  0.2748  11.00000  0.05    1.37
Q4    1   0.3952  0.1765  0.5860  11.00000  0.05    1.31
Q5    1   0.3815  0.4722  0.3368  11.00000  0.05    1.30
Q6    1   0.2600  0.4583  0.6425  11.00000  0.05    1.25
Q7    1  -0.2594  0.3092  0.3468  11.00000  0.05    1.24
Q8    1  -0.0681  0.1306  0.2430  11.00000  0.05    1.24
Q9    1   1.0651  0.5485  0.3781  11.00000  0.05    1.23
Q10   1  -0.0754  0.1157  0.5584  11.00000  0.05    1.23
Q11   1   0.9118  0.5295  0.2888  11.00000  0.05    1.22
Q12   1   0.2947  0.7647  0.2879  11.00000  0.05    1.17
Q13   1   0.6179  0.5119  0.2636  11.00000  0.05    1.16
Q14   1   0.6038  0.3925  0.2805  11.00000  0.05    1.16
Q15   1   1.0734  0.5669  0.2869  11.00000  0.05    1.15
Q16   1   0.3071  0.2291  0.6982  11.00000  0.05    1.15
Q17   1  -0.1570  0.3501  0.6621  11.00000  0.05    1.13
Q18   1   0.4009  0.3933  0.3170  11.00000  0.05    1.10
Q19   1   0.1823  0.1591  0.2574  11.00000  0.05    1.07
Q20   1  -0.1757  0.2175  0.2745  11.00000  0.05    1.07
