TITL p21c in P2(1)/c
    test-data/beispiel/11a.res
    created by SHELXL-2018/3 at 07:44:31 on 17-Aug-2018
CELL 0.71073 10.5086 20.9035 20.5072 90 94.13 90
ZERR 4 0.0003 0.0005 0.0005 0 0.001 0
LATT 1
SYMM -X,0.5+Y,0.5-Z
SFAC  C  H  O  F  AL  GA
UNIT  1  2  3  4  5  6
LIST 4 ! automatically inserted. Change 6 to 4 for CHECKCIF!!

L.S.  8
PLAN  20
TEMP -173.18
BOND $H
fmap 2

SAME_CCF3 O1 > F9

REM Restraints for Fragment oc(cf3)3, Nonafluoro-tert-butoxy, [(CF3)3CO]-
REM from: TURBOMOLE V6.0 B-P86/def-SV(P). Please cite
REM doi:10.1107/S1600576715005580
SADI_CCF3 0.02 C1 C2 C1 C3 C1 C4
SADI_CCF3 0.02 F1 C2 F2 C2 F3 C2 F4 C3 F5 C3 F6 C3 F7 C4 F8 C4 F9 C4
SADI_CCF3 0.04 C2 C3 C3 C4 C2 C4
SADI_CCF3 0.04 O1 C2 O1 C3 O1 C4
SADI_CCF3 0.04 F1 F2 F2 F3 F3 F1 F4 F5 F5 F6 F6 F4 F7 F8 F8 F9 F9 F7
DFIX_CCF3 1.35 O1 C1
SADI_CCF3 0.1 F1 C1 F2 C1 F3 C1 F4 C1 F5 C1 F6 C1 F7 C1 F8 C1 F9 C1
SIMU_CCF3 O1 > F9
RIGU_CCF3 O1 > F9

WGHT    0.049400    0.393100
FVAR       0.08683   0.48172   0.55491
GA1   6    0.639514    0.561735    0.237758    11.00000    0.02409    0.02507 =
         0.02490    0.00001   -0.00156    0.00158
AL1   5    0.064287    0.260189    0.478725    11.00000    0.01605    0.01975 =
         0.01367   -0.00008   -0.00219    0.00124
RESI 5 CCF3
PART 2 -21
O1    3    0.140551    0.206671    0.532500   -21.00000    0.02055    0.02633 =
         0.01412    0.00529    0.00029    0.00439
C1    1    0.182506    0.146623    0.545679   -21.00000    0.01943    0.02493 =
         0.02039   -0.00030   -0.00409    0.00828
C2    1    0.091460    0.094903    0.515343   -21.00000    0.02825    0.03054 =
         0.03616   -0.00072   -0.00435    0.00186
F1    4   -0.029858    0.112108    0.520059   -21.00000    0.02299    0.04445 =
         0.06268   -0.00491   -0.00592   -0.00319
F2    4    0.108470    0.038930    0.546020   -21.00000    0.05050    0.02510 =
         0.04780   -0.00017   -0.00665   -0.00481
F3    4    0.107916    0.085450    0.452548   -21.00000    0.05350    0.03851 =
         0.03376   -0.01250   -0.00966    0.00642
C3    1    0.316291    0.137043    0.519931   -21.00000    0.03119    0.02648 =
         0.04989    0.01011    0.00704    0.00424
F4    4    0.405866    0.168077    0.556580   -21.00000    0.02258    0.03782 =
         0.08988    0.00421   -0.00670   -0.00322
F5    4    0.319229    0.157510    0.458129   -21.00000    0.04383    0.04435 =
         0.04365    0.01648    0.01904    0.01371
F6    4    0.353988    0.075802    0.521558   -21.00000    0.02938    0.03595 =
         0.05507    0.01201    0.00758    0.02070
C4    1    0.192825    0.140505    0.621263   -21.00000    0.04272    0.02765 =
         0.02386    0.00670   -0.00758    0.00144
F7    4    0.245283    0.192748    0.649159   -21.00000    0.05154    0.03807 =
         0.03168   -0.00564   -0.01833   -0.00507
F8    4    0.264062    0.090256    0.642301   -21.00000    0.06077    0.04431 =
         0.04025    0.01617   -0.01310    0.01441
F9    4    0.078596    0.131919    0.643561   -21.00000    0.05677    0.04922 =
         0.03365    0.01033    0.01868    0.00375
PART 0
RESI 0

RESI 6 CCF3
PART 2 -31
O1    3    0.079537    0.235408    0.399704   -31.00000    0.02137    0.01147 =
         0.01855   -0.00436   -0.00157    0.00430
C1    1    0.029492    0.234395    0.336985   -31.00000    0.02091    0.03516 =
         0.01312   -0.00868    0.00048    0.00374
C2    1    0.121599    0.194420    0.298097   -31.00000    0.02925    0.04630 =
         0.01594   -0.00481   -0.00054    0.00935
F1    4    0.242641    0.210541    0.314945   -31.00000    0.01887    0.07349 =
         0.03251   -0.00695    0.00524    0.01450
F2    4    0.101156    0.199849    0.233622   -31.00000    0.04607    0.06555 =
         0.01646   -0.01168    0.00175    0.01613
F3    4    0.112061    0.131984    0.311405   -31.00000    0.05809    0.03865 =
         0.03421   -0.00575    0.00165    0.01905
C3    1   -0.103305    0.202139    0.332253   -31.00000    0.02888    0.06127 =
         0.01447   -0.00576   -0.00342   -0.00764
F4    4   -0.194085    0.242548    0.347033   -31.00000    0.01974    0.08414 =
         0.03127   -0.01464   -0.00649    0.00773
F5    4   -0.105770    0.152095    0.372788   -31.00000    0.04511    0.06955 =
         0.04289    0.01401   -0.00583   -0.01913
F6    4   -0.134688    0.178828    0.272131   -31.00000    0.03001    0.07993 =
         0.02355   -0.01728   -0.00890   -0.01274
C4    1    0.018552    0.302438    0.307470   -31.00000    0.04658    0.04130 =
         0.01815   -0.00024   -0.00817    0.00635
F7    4   -0.032863    0.341029    0.350063   -31.00000    0.06629    0.04313 =
         0.03795   -0.00891   -0.01458    0.02750
F8    4   -0.057449    0.301871    0.252010   -31.00000    0.07907    0.06948 =
         0.02449    0.00479   -0.02584    0.02130
F9    4    0.130517    0.325353    0.293371   -31.00000    0.06247    0.04401 =
         0.03523    0.00846   -0.00169   -0.01304
PART 0
RESI 0

SADI_CCF3 0.02 O1 C1
RESI 2 CCF3
PART 0
O1    3    0.118367    0.335868    0.493715    11.00000    0.04000
C1    1    0.224660    0.375884    0.503640    11.00000    0.04000
C2    1    0.282837    0.368614    0.576106    11.00000    0.04000
F1    4    0.210674    0.398384    0.618203    11.00000    0.04000
F2    4    0.402391    0.391164    0.584721    11.00000    0.04000
F3    4    0.284744    0.305456    0.591767    11.00000    0.04000
C3    1    0.326670    0.357752    0.454257    11.00000    0.04000
F4    4    0.270795    0.350151    0.393956    11.00000    0.04000
F5    4    0.381152    0.301022    0.472435    11.00000    0.04000
F6    4    0.419371    0.401791    0.452164    11.00000    0.04000
C4    1    0.174394    0.445665    0.490856    11.00000    0.04000
F7    4    0.149184    0.456154    0.426494    11.00000    0.04000
F8    4    0.262689    0.488568    0.513544    11.00000    0.04000
F9    4    0.066960    0.455535    0.520710    11.00000    0.04000
AFIX   0
PART 0
RESI 0

REM REM DSR REPLACE OC(CF3)3 WITH O1 C1 C2 ON O1X C1X C4X RESI PART 0
RESI 1 CCF3
O1    3   -0.097380    0.260919    0.489320    11.00000    0.01713    0.02593 =
         0.01668   -0.00402    0.00038    0.00074
C1    1   -0.187336    0.282853    0.527525    11.00000    0.01740    0.02275 =
         0.01761   -0.00043   -0.00186    0.00123
C2    1   -0.154295    0.264418    0.600341    11.00000    0.02026    0.03787 =
         0.02203   -0.00162   -0.00018    0.00597
F1    4   -0.175176    0.202441    0.610085    11.00000    0.04035    0.04361 =
         0.02849    0.01316    0.00114    0.00371
F2    4   -0.222344    0.297024    0.641452    11.00000    0.03269    0.06802 =
         0.01962   -0.00709    0.00366    0.01585
F3    4   -0.031494    0.275548    0.616633    11.00000    0.02271    0.05773 =
         0.02204   -0.00625   -0.00802    0.00741
C3    1   -0.201066    0.356734    0.522198    11.00000    0.02162    0.02859 =
         0.02949   -0.00575    0.00033    0.00038
F4    4   -0.189475    0.376063    0.461251    11.00000    0.04571    0.02836 =
         0.03494    0.00597    0.00446    0.00180
F5    4   -0.110403    0.386670    0.560073    11.00000    0.02689    0.03293 =
         0.04591   -0.01523   -0.00148   -0.00429
F6    4   -0.313244    0.377297    0.540560    11.00000    0.02368    0.03306 =
         0.04456   -0.00661   -0.00017    0.00937
C4    1   -0.316004    0.251676    0.503977    11.00000    0.02159    0.02824 =
         0.02398    0.00044    0.00069    0.00063
F7    4   -0.362574    0.278246    0.447773    11.00000    0.02268    0.04199 =
         0.02736    0.00098   -0.01008    0.00184
F8    4   -0.404367    0.257826    0.547035    11.00000    0.02066    0.04887 =
         0.03553   -0.00151    0.00544   -0.00234
F9    4   -0.301439    0.189580    0.492523    11.00000    0.02686    0.02729 =
         0.04230   -0.00399   -0.00177   -0.00538
RESI 0

C34   1    0.369663    0.548739    0.213203    11.00000    0.01994    0.02269 =
         0.03070   -0.00486   -0.00284    0.00098
AFIX  43
H34   2    0.340273    0.506517    0.203864    11.00000   -1.20000
AFIX   0
C33   1    0.380576    0.569536    0.277915    11.00000    0.01590    0.03230 =
         0.02439    0.00124   -0.00201    0.00402
C32   1    0.425168    0.631367    0.290540    11.00000    0.01548    0.03220 =
         0.02656   -0.00930   -0.00393    0.00565
AFIX  43
H32   2    0.435580    0.645825    0.334519    11.00000   -1.20000
AFIX   0
C35   1    0.400670    0.588149    0.161620    11.00000    0.01795    0.02839 =
         0.02232   -0.00165   -0.00588    0.00284
C30   1    0.443779    0.649855    0.176357    11.00000    0.02045    0.02453 =
         0.02610    0.00459   -0.00251    0.00404
AFIX  43
H30   2    0.466152    0.677162    0.141962    11.00000   -1.20000
AFIX   0
C36   1    0.383689    0.565119    0.092079    11.00000    0.04269    0.03618 =
         0.02263   -0.00270   -0.00385    0.00021
AFIX 137
H36A  2    0.294977    0.571702    0.075282    11.00000   -1.50000
H36B  2    0.404487    0.519474    0.090409    11.00000   -1.50000
H36C  2    0.440534    0.589170    0.065219    11.00000   -1.50000
AFIX   0
C31   1    0.454823    0.672458    0.240679    11.00000    0.01663    0.02501 =
         0.03551   -0.00438   -0.00386    0.00400
C37   1    0.341172    0.527441    0.332524    11.00000    0.02655    0.04353 =
         0.02829    0.00157    0.00199   -0.00429
AFIX 137
H37A  2    0.409032    0.526865    0.367898    11.00000   -1.50000
H37B  2    0.326210    0.483865    0.316089    11.00000   -1.50000
H37C  2    0.262625    0.544192    0.349132    11.00000   -1.50000
AFIX   0
C38   1    0.494358    0.740463    0.255556    11.00000    0.03643    0.02778 =
         0.04824   -0.00739   -0.00693   -0.00116
AFIX 137
H38A  2    0.530274    0.759312    0.217163    11.00000   -1.50000
H38B  2    0.558734    0.741030    0.292584    11.00000   -1.50000
H38C  2    0.419791    0.765298    0.266602    11.00000   -1.50000
AFIX   0

C21   1    0.721925    0.447964    0.167572    11.00000    0.02914    0.02306 =
         0.02623   -0.00350   -0.00160    0.00707
C20   1    0.838312    0.474752    0.190360    11.00000    0.02354    0.03006 =
         0.02899    0.00424    0.00461    0.00683
AFIX  43
H20   2    0.894236    0.490706    0.159796    11.00000   -1.20000
AFIX   0
C23   1    0.673439    0.429168    0.280513    11.00000    0.03008    0.01953 =
         0.02967    0.00329    0.00333    0.00512
C25   1    0.874322    0.478621    0.256922    11.00000    0.01989    0.02795 =
         0.03490    0.00290   -0.00743    0.00377
C22   1    0.640969    0.425703    0.213110    11.00000    0.02695    0.02176 =
         0.03407   -0.00072   -0.00323    0.00167
AFIX  43
H22   2    0.561232    0.407592    0.198153    11.00000   -1.20000
AFIX   0
C28   1    0.685687    0.443524    0.095277    11.00000    0.05014    0.03688 =
         0.02589   -0.00658   -0.00465    0.00302
AFIX 137
H28A  2    0.681915    0.486588    0.076347    11.00000   -1.50000
H28B  2    0.601996    0.422991    0.088194    11.00000   -1.50000
H28C  2    0.749580    0.418105    0.074269    11.00000   -1.50000
AFIX   0
C27   1    0.588447    0.401801    0.328949    11.00000    0.04277    0.04039 =
         0.03935    0.00853    0.00626   -0.00210
AFIX 137
H27A  2    0.582716    0.431796    0.365347    11.00000   -1.50000
H27B  2    0.623811    0.361085    0.345569    11.00000   -1.50000
H27C  2    0.503154    0.394599    0.307651    11.00000   -1.50000
AFIX   0
C24   1    0.790672    0.456424    0.301110    11.00000    0.03202    0.02706 =
         0.02322    0.00020   -0.00472    0.00888
AFIX  43
H24   2    0.813837    0.459876    0.346613    11.00000   -1.20000
AFIX   0
C26   1    1.002679    0.505450    0.281400    11.00000    0.02871    0.06243 =
         0.05035    0.00718   -0.01294   -0.00257
AFIX 137
H26A  2    1.045937    0.522825    0.244510    11.00000   -1.50000
H26B  2    1.054834    0.471346    0.302420    11.00000   -1.50000
H26C  2    0.990420    0.539560    0.313128    11.00000   -1.50000
AFIX   0

RESI 3 CCF3
PART 1 21
O1    3    0.158722    0.209701    0.528317    21.00000    0.01891    0.01837 =
         0.02251   -0.00058   -0.00195    0.00546
C1    1    0.198930    0.149607    0.543724    21.00000    0.01979    0.01438 =
         0.02514    0.00298   -0.00483   -0.00250
C2    1    0.283598    0.124885    0.490306    21.00000    0.04439    0.02612 =
         0.02817    0.00193   -0.00042    0.00941
F1    4    0.355697    0.074957    0.510702    21.00000    0.04697    0.02804 =
         0.02770   -0.00426   -0.00148    0.01267
F2    4    0.359583    0.170576    0.471483    21.00000    0.04023    0.03706 =
         0.04513    0.00714    0.01779    0.01206
F3    4    0.212156    0.104122    0.438122    21.00000    0.07966    0.03918 =
         0.02922   -0.01186   -0.02114    0.02455
C3    1    0.086479    0.103527    0.549665    21.00000    0.02232    0.03085 =
         0.06366    0.01342   -0.00659    0.00114
F4    4    0.117782    0.041511    0.547421    21.00000    0.03425    0.02632 =
         0.10379    0.01815   -0.00827   -0.00115
F5    4   -0.005273    0.114054    0.502024    21.00000    0.03131    0.03531 =
         0.09611    0.00804   -0.03312   -0.00819
F6    4    0.032481    0.113047    0.606811    21.00000    0.04120    0.05249 =
         0.08368    0.03206    0.03090    0.00268
C4    1    0.280570    0.152838    0.609878    21.00000    0.03665    0.02731 =
         0.02388    0.00591   -0.00754    0.00775
F7    4    0.222283    0.187902    0.652570    21.00000    0.06573    0.04832 =
         0.01655    0.00449   -0.00442    0.02251
F8    4    0.298185    0.094457    0.636962    21.00000    0.04984    0.03162 =
         0.02804    0.01219   -0.00904    0.01285
F9    4    0.394908    0.177210    0.602375    21.00000    0.02821    0.03935 =
         0.04518   -0.00378   -0.01894    0.00179
PART 0
RESI 0

RESI 4 CCF3
PART 1 31
O1    3    0.084265    0.235056    0.400220    31.00000    0.01955    0.05572 =
         0.00902   -0.00234   -0.00414    0.00502
C1    1    0.035965    0.231643    0.336808    31.00000    0.01762    0.03176 =
         0.01558    0.00041   -0.00864    0.00484
C2    1    0.150853    0.233096    0.294386    31.00000    0.03632    0.03923 =
         0.01745   -0.00462   -0.00127    0.00600
F1    4    0.121031    0.212320    0.233154    31.00000    0.04420    0.05677 =
         0.01241   -0.00560    0.00062    0.00245
F2    4    0.245632    0.195017    0.319110    31.00000    0.02914    0.05649 =
         0.02953   -0.00641   -0.00226    0.01563
F3    4    0.196895    0.291920    0.290375    31.00000    0.04332    0.04762 =
         0.02849    0.00191    0.00566   -0.01135
C3    1   -0.052864    0.288726    0.318509    31.00000    0.03224    0.03966 =
         0.01969   -0.00325   -0.00511    0.01160
F4    4   -0.005554    0.342639    0.346612    31.00000    0.05065    0.02879 =
         0.02884   -0.00352   -0.01204    0.01357
F5    4   -0.067107    0.300386    0.254305    31.00000    0.04158    0.04125 =
         0.01905   -0.00050   -0.00437    0.01399
F6    4   -0.169069    0.279976    0.339260    31.00000    0.02451    0.06338 =
         0.03135    0.00003   -0.00472    0.01687
C4    1   -0.039040    0.168502    0.325682    31.00000    0.03139    0.04151 =
         0.02347   -0.00224   -0.01032   -0.00323
F7    4   -0.115530    0.158560    0.373347    31.00000    0.03049    0.05048 =
         0.03183   -0.00270   -0.00142   -0.01744
F8    4   -0.110126    0.168452    0.268568    31.00000    0.04721    0.04922 =
         0.03134    0.00014   -0.02040   -0.00707
F9    4    0.041046    0.118716    0.324924    31.00000    0.05417    0.03253 =
         0.03753   -0.00727   -0.01011    0.00478
PART 0
RESI 0

HKLF 4




REM  p21c in P2(1)/c
REM wR2 = 0.6324, GooF = S = 9.208, Restrained GooF = 7.811 for all data
REM R1 = 0.2709 for 7085 Fo > 4sig(Fo) and 0.3269 for all 10786 data
REM 966 parameters refined using 5866 restraints

END  
     
WGHT      0.2000      0.0000 

REM Highest difference peak 13.990,  deepest hole-10.384,  1-sigma level  0.614
Q1    1   0.2981  0.3031  0.2749  11.00000  0.05    1.53
Q2    1   0.3681  0.8171  0.2608  11.00000  0.05    1.53
Q3    1   0.6155  0.3979  0.2804  11.00000  0.05    1.29
Q4    1   0.3927  0.1762  0.5852  11.00000  0.05    1.29
Q5    1   0.9051  0.5342  0.2888  11.00000  0.05    1.25
Q6    1  -0.0800  0.1151  0.5573  11.00000  0.05    1.24
Q7    1   0.6255  0.5104  0.2652  11.00000  0.05    1.24
Q8    1   0.2962  0.7635  0.2887  11.00000  0.05    1.22
Q9    1   0.3772  0.4732  0.3371  11.00000  0.05    1.18
Q10   1   0.5513  0.4591  0.3579  11.00000  0.05    1.16
Q11   1   0.2595  0.4597  0.6411  11.00000  0.05    1.15
Q12   1  -0.0503  0.1222  0.2488  11.00000  0.05    1.15
Q13   1  -0.0771  0.3572  0.6025  11.00000  0.05    1.13
Q14   1  -0.2221  0.1524  0.6379  11.00000  0.05    1.13
Q15   1   1.1722  0.5474  0.2560  11.00000  0.05    1.11
Q16   1  -0.2581  0.3130  0.3468  11.00000  0.05    1.10
Q17   1   0.4510  0.3606  0.3760  11.00000  0.05    1.09
Q18   1   0.2344  0.4507  0.6373  11.00000  0.05    1.09
Q19   1   1.0529  0.5972  0.3108  11.00000  0.05    1.06
Q20   1   0.4418  0.5018  0.2270  11.00000  0.05    1.06
