
REM Solution 1  R1  0.226,  Alpha = 0.0301  in P2(1)/n
REM C26 F6 S
TITL p21n in P2(1)/n
    test-data/beispiel/20a.res
    created by SHELXL-2016/6 at 21:30:06 on 12-Mar-2017
CELL  0.71073  17.2012   6.5879  17.8587   90.000   98.492   90.000
ZERR    4.00   0.0063   0.0029   0.0062   0.000   0.020   0.000
LATT  1
SYMM 1/2-X, 1/2+Y, 1/2-Z
SFAC  C  H  F  S  O
UNIT  1  2  3  4  5
TEMP -173.150
SIZE 0.037 0.122 0.146
L.S.  8
BOND $H
LIST 4
FMAP 2
PLAN 20
REM ACTA
CONF
WGHT    0.065900    4.305900
FVAR       0.36036   0.50000
S1    4    0.358408    1.025472    0.310189    11.00000    0.01770    0.01478 =
         0.02575    0.00140    0.00066    0.00055

REM CF3 group made by DSR:
SADI 0.02 C22A F1A C22A F2A C22A F3A  C22B F4A C22B F5A C22B F6A
SADI 0.04 F1A F2A F2A F3A F3A F1A  F4A F5A F5A F6A F6A F4A
SADI 0.1  C19 F1A C19 F2A C19 F3A  C19 F4A C19 F5A C19 F6A
SADI C19 C22A C19 C22B
EADP C22A C22B
RIGU C19 C22A C22B F1A > F6A
PART 1
C22A  1    0.674374    1.506982    0.260031    21.0000     0.04
F1A   3    0.697293    1.597664    0.325480    21.0000     0.04
F2A   3    0.637410    1.638860    0.211685    21.0000     0.04
F3A   3    0.736335    1.435375    0.233047    21.0000     0.04
PART 2
C22B  1    0.670120    1.561492    0.274783   -21.0000     0.04
F4A   3    0.679145    1.571446    0.202747   -21.0000     0.04
F5A   3    0.739028    1.530250    0.316542   -21.0000     0.04
F6A   3    0.640103    1.733734    0.295180   -21.0000     0.04
PART 0

REM End of CF3 group made by DSR

C1    1    0.090610   -0.303414    0.513850    11.00000    0.04416    0.03234 =
         0.02545   -0.00090    0.00994   -0.01480
F1X   3    0.045281   -0.252567    0.561932    11.00000    0.07507
F1Y   3    0.129932   -0.463873    0.548990    11.00000    0.07520
F1Z   3    0.055789   -0.388160    0.454486    11.00000    0.10792
O1    5    0.356809    0.381786    0.502687    11.00000    0.02846    0.03718 =
         0.02160    0.00338   -0.00356   -0.01119
REM rem dsr put CF6 on C22 split
O2    5    0.317306    0.656595    0.254839    11.00000    0.02094    0.02155 =
         0.01743   -0.00034   -0.00119   -0.00144
O3    5    0.448823    0.743993    0.255739    11.00000    0.02332    0.01350 =
         0.02050   -0.00409    0.00449   -0.00422
C2    1    0.145132   -0.136439    0.498323    11.00000    0.03814    0.02670 =
         0.02771   -0.00175    0.01398   -0.00190
C3    1    0.215367   -0.110357    0.544767    11.00000    0.04333    0.02301 =
         0.02050    0.00293    0.00605   -0.00262
AFIX  43
H3    2    0.230492   -0.200566    0.585838    11.00000   -1.20000
AFIX   0
C4    1    0.264469    0.050231    0.531081    11.00000    0.02655    0.02422 =
         0.01999    0.00045    0.00324   -0.00014
AFIX  43
H4    2    0.313345    0.068707    0.562840    11.00000   -1.20000
AFIX   0
C5    1    0.242188    0.183288    0.471187    11.00000    0.02493    0.01812 =
         0.01815   -0.00280    0.00537   -0.00234
C6    1    0.169899    0.151676    0.423958    11.00000    0.02641    0.02514 =
         0.02128    0.00319    0.00403   -0.00232
AFIX  43
H6    2    0.153991    0.241458    0.382924    11.00000   -1.20000
AFIX   0
C7    1    0.122162   -0.009000    0.437049    11.00000    0.03123    0.03089 =
         0.02443   -0.00166    0.00506   -0.00988
AFIX  43
H7    2    0.074109   -0.032191    0.404502    11.00000   -1.20000
AFIX   0
C8    1    0.295075    0.355941    0.458869    11.00000    0.02439    0.02533 =
         0.01574   -0.00320    0.00234    0.00122
C9    1    0.271801    0.493797    0.392792    11.00000    0.02068    0.01837 =
         0.02097   -0.00039    0.00441   -0.00057
AFIX  23
H9A   2    0.219662    0.552750    0.396912    11.00000   -1.20000
H9B   2    0.266285    0.412025    0.345796    11.00000   -1.20000
AFIX   0

C10   1    0.329070    0.665649    0.385909    11.00000    0.01935    0.01655 =
         0.01709   -0.00175   -0.00068    0.00133
AFIX  13
H10   2    0.335346    0.753803    0.431993    11.00000   -1.20000
AFIX   0
C11   1    0.409685    0.596327    0.367181    11.00000    0.02010    0.01648 =
         0.01646   -0.00201   -0.00061    0.00184
AFIX  13
H11   2    0.426763    0.461969    0.389964    11.00000   -1.20000
AFIX   0
C12   1    0.396674    0.594237    0.278921    11.00000    0.02188    0.01702 =
         0.02167    0.00039    0.00373    0.00060
AFIX  13
H12   2    0.407084    0.456853    0.258753    11.00000   -1.20000
AFIX   0
C13   1    0.301581    0.790335    0.314043    11.00000    0.02040    0.01622 =
         0.02196    0.00074   -0.00008    0.00335
AFIX  13
H13   2    0.244100    0.820579    0.309414    11.00000   -1.20000
AFIX   0
C14   1    0.472111    0.762994    0.385182    11.00000    0.02034    0.02035 =
         0.02149    0.00187   -0.00231    0.00161
AFIX  23
H14A  2    0.464728    0.839937    0.431227    11.00000   -1.20000
H14B  2    0.525999    0.706408    0.391416    11.00000   -1.20000
AFIX   0
C15   1    0.454987    0.894386    0.313925    11.00000    0.01717    0.02041 =
         0.01795   -0.00219    0.00045    0.00191
C16   1    0.513217    1.054048    0.301368    11.00000    0.01675    0.01854 =
         0.02137    0.00107   -0.00030    0.00175
C17   1    0.547203    1.175086    0.362182    11.00000    0.02273    0.02186 =
         0.02359   -0.00067    0.00310   -0.00011
AFIX  43
H17   2    0.534479    1.151294    0.411419    11.00000   -1.20000
AFIX   0
C18   1    0.598877    1.328151    0.351052    11.00000    0.02454    0.02005 =
         0.02875   -0.00565    0.00352   -0.00191
AFIX  43
H18   2    0.621584    1.409964    0.392374    11.00000   -1.20000
AFIX   0
C19   1    0.617656    1.362258    0.278664    11.00000    0.02905    0.02253 =
         0.03891   -0.00005    0.01034    0.00224
C20   1    0.585869    1.244612    0.218733    11.00000    0.03351    0.03002 =
         0.03188   -0.00193    0.01029   -0.00277
AFIX  43
H20   2    0.599223    1.268907    0.169764    11.00000   -1.20000
AFIX   0

C21   1    0.533768    1.088818    0.229775    11.00000    0.03757    0.02487 =
         0.02545   -0.00405    0.00567   -0.00342
AFIX  43
H21   2    0.512185    1.006012    0.188313    11.00000   -1.20000

REM #####
REM #####
AFIX   0
HKLF 4




REM  p21n in P2(1)/n
REM R1 =  0.1882 for    3554 Fo > 4sig(Fo)  and  0.2054 for all    4254 data
REM    267 parameters refined using      0 restraints

END  
     
WGHT      0.2000      0.0000 

REM Highest difference peak  4.398,  deepest hole -3.893,  1-sigma level  0.262
Q1    1   0.7378  1.5387  0.3406  11.00000  0.05    4.40
Q2    1   0.7188  1.5140  0.2116  11.00000  0.05    4.25
Q3    1   0.0179 -0.3121  0.4622  11.00000  0.05    3.52
Q4    1   0.6613  1.7024  0.3131  11.00000  0.05    3.49
Q5    1   0.6326  1.6339  0.1843  11.00000  0.05    2.21
Q6    1   0.0768 -0.4368  0.4493  11.00000  0.05    2.02
Q7    1   0.6457  1.6993  0.2609  11.00000  0.05    1.88
Q8    1   0.0201 -0.2458  0.5246  11.00000  0.05    1.76
Q9    1   0.1128 -0.4740  0.5082  11.00000  0.05    1.71
Q10   1   0.0607 -0.2626  0.5889  11.00000  0.05    1.59
Q11   1   0.1346 -0.4447  0.5764  11.00000  0.05    1.10
Q12   1   0.6831  1.5228  0.2829  11.00000  0.05    1.01
Q13   1   0.4340  0.7705  0.2435  11.00000  0.05    0.69
Q14   1   0.4007  0.5879  0.3351  11.00000  0.05    0.60
Q15   1   0.3142  0.7673  0.3400  11.00000  0.05    0.57
Q16   1   0.3239  0.3553  0.4754  11.00000  0.05    0.57
Q17   1   0.6993  1.8057  0.2849  11.00000  0.05    0.48
Q18   1   0.6661  1.5605  0.2463  11.00000  0.05    0.47
Q19   1   0.4961  0.6981  0.3786  11.00000  0.05    0.46
Q20   1   0.8113  1.6429  0.2201  11.00000  0.05    0.45
