TITL Pbcn in Pbcn
    test-data\beispiel\23a.res
    created by SHELXL-2016/6 at 17:38:32 on 24-Apr-2017
CELL 0.71073  16.8314  17.0774  32.5761  90.000  90.000  90.000
ZERR    8.00   0.0024   0.0025   0.0047   0.000   0.000   0.000
LATT 1
SYMM 0.5-X, 0.5-Y, 0.5+Z
SYMM -X, Y, 0.5-Z
SYMM 0.5+X, 0.5-Y, -Z
SFAC  C  H  N  GE
UNIT  1  2  3  4
LIST 6 ! automatically inserted. Change 6 to 4 for CHECKCIF!!
L.S.  0
BOND $H
REM ACTA
CONF
FMAP 2
PLAN 20

TEMP -173.000

REM Restraints for Fragment toluene, Toluene, C7H8 from: CCDC CESLUJ.
REM Please cite doi:10.1107/S1600576715005580
SADI_TOL C2 C3 C3 C4 C4 C5 C5 C6 C6 C7 C7 C2
SADI_TOL 0.04 C2 C6 C2 C4 C7 C5 C3 C7 C4 C6 C3 C5
SADI_TOL 0.02 C1 C2
SADI_TOL 0.04 C1 C7 C1 C3
FLAT_TOL C1 > C7
SIMU_TOL C1 > C7
RIGU_TOL C1 > C7
SAME_TOL C1 > C7
WGHT    0.044800   37.513680
FVAR       0.04009   0.50000
RESI 1 TOL
PART -1 10.5
C1    1    1.000988    0.596024    0.573935    10.50000    0.04000
C2    1    1.000426    0.546622    0.535646    10.50000    0.04000
C3    1    0.931918    0.538632    0.512070    10.50000    0.04000
C4    1    0.930576    0.493261    0.477115    10.50000    0.04000
C5    1    0.999056    0.454246    0.464884    10.50000    0.04000
C6    1    1.067708    0.461604    0.487801    10.50000    0.04000
C7    1    1.068530    0.507039    0.522838    10.50000    0.04000
AFIX   0
PART 0
RESI 0

REM REM DSR PUT TOLUENE WITH C2 C3 C5 ON Q1 Q2 Q1 PART -1 OCC 10.5 RESI TOL
N5    3    0.796530    0.177700    0.515350    11.00000    0.05000
C24   1    0.832250    0.130290    0.482180    11.00000    0.05000
C25   1    0.901530    0.085100    0.501810    11.00000    0.05000
C26   1    0.871800    0.182030    0.447820    11.00000    0.05000
C27   1    0.773410    0.074370    0.463150    11.00000    0.05000
N6    3    0.722650    0.255580    0.551020    11.00000    0.05000
C35   1    0.675130    0.323750    0.566270    11.00000    0.05000
C36   1    0.588030    0.318240    0.556910    11.00000    0.05000
C37   1    0.692620    0.329610    0.612590    11.00000    0.05000
C38   1    0.709030    0.402780    0.548490    11.00000    0.05000
N1    3    0.721740    0.056520    0.703740    11.00000    0.05000
C39   1    0.666190   -0.004440    0.689290    11.00000    0.05000
C40   1    0.712430   -0.083560    0.689980    11.00000    0.05000
C41   1    0.674180    0.000060    0.641810    11.00000    0.05000
C42   1    0.583480    0.015650    0.703610    11.00000    0.05000
N2    3    0.801830    0.129660    0.738790    11.00000    0.05000
C8    1    0.841910    0.172740    0.772280    11.00000    0.05000
C9    1    0.783060    0.209780    0.802020    11.00000    0.05000
C10   1    0.900090    0.120090    0.795090    11.00000    0.05000
C11   1    0.889530    0.237020    0.751120    11.00000    0.05000
GE1   4    0.762060    0.159690    0.681420    11.00000    0.05000
GE2   4    0.759200    0.151670    0.573880    11.00000    0.05000
N3    3    0.846130    0.131080    0.644950    11.00000    0.05000
N4    3    0.845210    0.179330    0.608850    11.00000    0.05000
C1    1    0.750880    0.070100    0.740980    11.00000    0.05000
C2    1    0.730910    0.024650    0.778890    11.00000    0.05000
C3    1    0.663260    0.041870    0.801730    11.00000    0.05000
C4    1    0.644960   -0.001770    0.836200    11.00000    0.05000
C5    1    0.693540   -0.062710    0.848220    11.00000    0.05000
C6    1    0.761500   -0.079860    0.826100    11.00000    0.05000
C7    1    0.779950   -0.036090    0.791300    11.00000    0.05000
C12   1    0.902940    0.071140    0.644360    11.00000    0.05000
C13   1    0.908800    0.019000    0.677830    11.00000    0.05000
C14   1    0.964430   -0.040740    0.677780    11.00000    0.05000
C15   1    1.016350   -0.050690    0.645310    11.00000    0.05000
C16   1    1.011720    0.000870    0.612660    11.00000    0.05000
C17   1    0.956420    0.061040    0.611810    11.00000    0.05000
C18   1    0.900100    0.241030    0.608130    11.00000    0.05000
C19   1    0.947690    0.260510    0.641690    11.00000    0.05000
C20   1    1.000220    0.323030    0.639740    11.00000    0.05000
C21   1    1.007770    0.366850    0.604140    11.00000    0.05000
C22   1    0.962630    0.346510    0.570380    11.00000    0.05000
C23   1    0.910040    0.284620    0.571920    11.00000    0.05000
C28   1    0.746680    0.237890    0.513390    11.00000    0.05000
C29   1    0.723820    0.280920    0.475370    11.00000    0.05000
C30   1    0.771700    0.340030    0.460580    11.00000    0.05000
C31   1    0.749800    0.381510    0.425710    11.00000    0.05000
C32   1    0.680070    0.363950    0.405860    11.00000    0.05000
C33   1    0.632710    0.305020    0.419910    11.00000    0.05000
C34   1    0.654210    0.262600    0.454590    11.00000    0.05000
HKLF 4




REM  Pbcn in Pbcn
REM R1 =  0.7091 for    4117 Fo > 4sig(Fo)  and  0.7522 for all    5655 data
REM    216 parameters refined using     42 restraints

END  
     
WGHT      0.2000      0.0000 

REM Highest difference peak  3.494,  deepest hole -5.811,  1-sigma level  0.650
Q1    1   0.7539  0.2318  0.5723  11.00000  0.05    3.49
Q2    1   0.8124  0.1538  0.5768  11.00000  0.05    3.47
Q3    1   0.7607  0.1614  0.6508  11.00000  0.05    3.15
Q4    1   0.8133  0.1566  0.6816  11.00000  0.05    3.12
Q5    1   0.7766 -0.0130  0.4308  11.00000  0.05    2.74
Q6    1   0.7804  0.0026  0.8223  11.00000  0.05    2.58
Q7    1   0.7591  0.0573  0.8218  11.00000  0.05    2.55
Q8    1   0.7575  0.2288  0.6779  11.00000  0.05    2.52
Q9    1   0.9734  0.1307  0.6249  11.00000  0.05    2.50
Q10   1   0.7926  0.3339  0.5403  11.00000  0.05    2.46
Q11   1   0.7426  0.1496  0.5478  11.00000  0.05    2.41
Q12   1   0.7454  0.1539  0.7088  11.00000  0.05    2.38
Q13   1   0.9674  0.5483  0.5336  11.00000  0.05    2.33
Q14   1   0.7063  0.3383  0.5394  11.00000  0.05    2.27
Q15   1   0.6891  0.3422  0.6605  11.00000  0.05    2.18
Q16   1   0.7236  0.3406  0.5944  11.00000  0.05    2.15
Q17   1   0.5383  0.3327  0.5345  11.00000  0.05    2.09
Q18   1   0.7803 -0.0018  0.4814  11.00000  0.05    1.98
Q19   1   0.9937  0.1839  0.6533  11.00000  0.05    1.95
Q20   1   0.7832 -0.0078  0.7682  11.00000  0.05    1.95
