 
TITL p21c in P2(1)/c
CELL 0.71073 10.5086 20.9035 20.5072 90 94.13 90
ZERR 4 0.0003 0.0005 0.0005 0 0.001 0
LATT 1
SYMM -X,0.5+Y,0.5-Z
SFAC  C  H  O  F  Al  Ga
UNIT  1  2  3  4  5  6
LIST 6 ! automatically inserted. Change 6 to 4 for CHECKCIF!!
 
L.S.  10
PLAN  20
TEMP -173.18
BOND $H
fmap 2
 
WGHT    0.049400    0.393100
FVAR       0.08630   0.48020   0.64270
GA1   6    0.639542    0.561749    0.237746    11.00000    0.02387    0.02506 =
         0.02482    0.00010   -0.00147    0.00155
AL1   5    0.064117    0.260198    0.478746    11.00000    0.01601    0.01966 =
         0.01366   -0.00001   -0.00230    0.00097
O1    3    0.120483    0.336560    0.494175    11.00000    0.01540    0.02129 =
         0.02424   -0.00112   -0.00147   -0.00173
O2    3   -0.097370    0.261025    0.489266    11.00000    0.01847    0.02611 =
         0.01598   -0.00393    0.00092    0.00013
F10   4   -0.362607    0.278143    0.447762    11.00000    0.02187    0.04175 =
         0.02801    0.00151   -0.01078    0.00156
F11   4   -0.404473    0.257827    0.547027    11.00000    0.02023    0.04948 =
         0.03430   -0.00149    0.00602   -0.00270
F12   4   -0.301399    0.189510    0.492566    11.00000    0.02656    0.02569 =
         0.04219   -0.00373   -0.00156   -0.00506
F13   4   -0.175284    0.202529    0.610139    11.00000    0.03966    0.04413 =
         0.02907    0.01462    0.00154    0.00378
F14   4   -0.031293    0.275648    0.616571    11.00000    0.02294    0.05654 =
         0.02317   -0.00557   -0.00846    0.00650
F15   4   -0.222277    0.296880    0.641487    11.00000    0.03125    0.06803 =
         0.01906   -0.00696    0.00358    0.01431
F16   4   -0.313425    0.377278    0.540599    11.00000    0.02407    0.03386 =
         0.04432   -0.00721   -0.00105    0.00985
F17   4   -0.189466    0.376014    0.461205    11.00000    0.04642    0.02864 =
         0.03437    0.00675    0.00378    0.00100
F18   4   -0.110510    0.386692    0.560113    11.00000    0.02695    0.03218 =
         0.04576   -0.01565   -0.00179   -0.00355
C5    1   -0.187127    0.282942    0.527348    11.00000    0.01785    0.02285 =
         0.01797   -0.00010   -0.00297    0.00158
C6    1   -0.316250    0.251452    0.503865    11.00000    0.02186    0.02892 =
         0.02467    0.00096    0.00175   -0.00115
C7    1   -0.154818    0.264356    0.600558    11.00000    0.02097    0.03771 =
         0.02224   -0.00255   -0.00091    0.00591
C8    1   -0.200882    0.356824    0.522162    11.00000    0.02075    0.02955 =
         0.03076   -0.00554   -0.00066   -0.00122
C1    1    0.223392    0.375314    0.503998    11.00000    0.01646    0.02405 =
         0.01944    0.00095   -0.00346   -0.00043
C2    1    0.325746    0.359167    0.456200    11.00000    0.02018    0.02951 =
         0.03178   -0.00009    0.00059   -0.00112
F1    4    0.290712    0.379745    0.395705    11.00000    0.03908    0.04513 =
         0.02510    0.00337    0.00755   -0.00360
F2    4    0.343175    0.296278    0.451892    11.00000    0.02521    0.03030 =
         0.04986   -0.00985    0.00431    0.00538
F3    4    0.438836    0.385359    0.473666    11.00000    0.01766    0.04459 =
         0.05120   -0.00504    0.00266   -0.00553
C3    1    0.179280    0.444986    0.492671    11.00000    0.02182    0.02382 =
         0.02880    0.00075   -0.00086   -0.00148
F4    4    0.100463    0.449617    0.438997    11.00000    0.03874    0.03144 =
         0.03361    0.00701   -0.01230    0.00693
F5    4    0.115954    0.466153    0.542750    11.00000    0.03274    0.02780 =
         0.03855   -0.00860    0.00250    0.00279
F6    4    0.275924    0.485252    0.485707    11.00000    0.03201    0.02635 =
         0.04612    0.00458    0.00176   -0.00667
C4    1    0.282153    0.368639    0.575494    11.00000    0.02708    0.02912 =
         0.02764   -0.00139   -0.00796   -0.00400
F7    4    0.358509    0.417729    0.593768    11.00000    0.03534    0.04052 =
         0.03266   -0.00333   -0.01517   -0.00922
F8    4    0.352106    0.315046    0.582979    11.00000    0.03684    0.03411 =
         0.04147    0.00793   -0.02183    0.00392
F9    4    0.192161    0.365525    0.617205    11.00000    0.04196    0.05387 =
         0.01935    0.00192    0.00048   -0.00994
C34   1    0.369672    0.548710    0.213284    11.00000    0.02075    0.02312 =
         0.03086   -0.00450   -0.00198    0.00004
AFIX  43
H34   2    0.340386    0.506452    0.204047    11.00000   -1.20000
AFIX   0
C33   1    0.380795    0.569630    0.277858    11.00000    0.01538    0.03199 =
         0.02368    0.00049   -0.00257    0.00331
C32   1    0.425260    0.631117    0.290538    11.00000    0.01660    0.03234 =
         0.02777   -0.00928   -0.00414    0.00691
AFIX  43
H32   2    0.435595    0.645464    0.334557    11.00000   -1.20000
AFIX   0
C35   1    0.400434    0.588195    0.161504    11.00000    0.01887    0.02885 =
         0.02097   -0.00165   -0.00574    0.00381
C30   1    0.443865    0.649684    0.176502    11.00000    0.02048    0.02538 =
         0.02457    0.00503   -0.00217    0.00435
AFIX  43
H30   2    0.466435    0.676941    0.142107    11.00000   -1.20000
AFIX   0
C36   1    0.384026    0.565137    0.092046    11.00000    0.04512    0.03604 =
         0.02184   -0.00101   -0.00344    0.00109
AFIX 137
H36A  2    0.295665    0.572161    0.074898    11.00000   -1.50000
H36B  2    0.403896    0.519379    0.090521    11.00000   -1.50000
H36C  2    0.441811    0.588824    0.065396    11.00000   -1.50000
AFIX   0
C31   1    0.455255    0.672516    0.240672    11.00000    0.01729    0.02581 =
         0.03349   -0.00385   -0.00403    0.00428
C37   1    0.341795    0.527502    0.332376    11.00000    0.02810    0.04216 =
         0.02836    0.00165    0.00116   -0.00489
AFIX 137
H37A  2    0.410063    0.526668    0.367538    11.00000   -1.50000
H37B  2    0.326252    0.484013    0.315819    11.00000   -1.50000
H37C  2    0.263643    0.544359    0.349315    11.00000   -1.50000
AFIX   0
C38   1    0.493648    0.740446    0.255424    11.00000    0.03848    0.02710 =
         0.04751   -0.00754   -0.00626   -0.00211
AFIX 137
H38A  2    0.526582    0.759863    0.216532    11.00000   -1.50000
H38B  2    0.560114    0.741172    0.291479    11.00000   -1.50000
H38C  2    0.419314    0.764654    0.267892    11.00000   -1.50000
AFIX   0
 
C21   1    0.721898    0.448010    0.167532    11.00000    0.02881    0.02370 =
         0.02594   -0.00359   -0.00131    0.00712
C20   1    0.838172    0.474608    0.190373    11.00000    0.02549    0.02920 =
         0.02870    0.00383    0.00450    0.00622
AFIX  43
H20   2    0.894128    0.490453    0.159770    11.00000   -1.20000
AFIX   0
C23   1    0.673389    0.429337    0.280561    11.00000    0.02867    0.02010 =
         0.02973    0.00348    0.00405    0.00413
C25   1    0.874523    0.478584    0.256790    11.00000    0.02034    0.02842 =
         0.03453    0.00297   -0.00756    0.00379
C22   1    0.640959    0.425563    0.213073    11.00000    0.02592    0.02043 =
         0.03556   -0.00056   -0.00307    0.00163
AFIX  43
H22   2    0.561493    0.407157    0.198124    11.00000   -1.20000
AFIX   0
C28   1    0.684591    0.443744    0.095155    11.00000    0.05190    0.03731 =
         0.02532   -0.00688   -0.00509    0.00328
AFIX 137
H28A  2    0.671679    0.486908    0.077234    11.00000   -1.50000
H28B  2    0.605323    0.419210    0.088119    11.00000   -1.50000
H28C  2    0.752562    0.422346    0.073147    11.00000   -1.50000
AFIX   0
C27   1    0.589161    0.401752    0.328895    11.00000    0.04337    0.04128 =
         0.03893    0.00833    0.00598   -0.00220
AFIX 137
H27A  2    0.581667    0.432098    0.364843    11.00000   -1.50000
H27B  2    0.626037    0.361603    0.346181    11.00000   -1.50000
H27C  2    0.504439    0.393431    0.307418    11.00000   -1.50000
AFIX   0
C24   1    0.790637    0.456446    0.301180    11.00000    0.03325    0.02707 =
         0.02328    0.00019   -0.00533    0.00877
AFIX  43
H24   2    0.813843    0.459891    0.346680    11.00000   -1.20000
AFIX   0
C26   1    1.002656    0.505449    0.281632    11.00000    0.02908    0.06224 =
         0.04932    0.00635   -0.01194   -0.00088
AFIX 137
H26A  2    1.045228    0.523975    0.245076    11.00000   -1.50000
H26B  2    1.055569    0.471094    0.301639    11.00000   -1.50000
H26C  2    0.990166    0.538679    0.314271    11.00000   -1.50000
AFIX   0
 
SAME_CF3 O1 > F9
SIMU_CF3 O1 > F9
RIGU_CF3 O1 > F9
EADP O1_1 O1_2
EADP C1_1 C1_2
SADI Al1_0 O1_1 Al1_0 O1_2
SADI Al1_0 C1_1 Al1_0 C1_2
RESI 1 CF3
SAME_0 O1 C1 > F9
PART 1 21
O1    3    0.157063    0.209682    0.529669    21.00000    0.02216    0.02179 =
         0.01952    0.00180   -0.00332    0.00459
C1    1    0.198357    0.149640    0.543696    21.00000    0.02171    0.02022 =
         0.02284    0.00209   -0.00461    0.00384
C2    1    0.283107    0.125050    0.490577    21.00000    0.03965    0.02886 =
         0.02653    0.00328   -0.00055    0.00944
F1    4    0.357345    0.075449    0.511203    21.00000    0.04394    0.03014 =
         0.03048   -0.00149   -0.00169    0.01372
F2    4    0.359443    0.171094    0.471899    21.00000    0.04023    0.03394 =
         0.03855    0.00330    0.01258    0.01017
F3    4    0.211931    0.104442    0.438003    21.00000    0.06903    0.03628 =
         0.02964   -0.00909   -0.01668    0.02085
C3    1    0.086341    0.103660    0.549704    21.00000    0.02524    0.03171 =
         0.05830    0.01118   -0.00378    0.00184
F4    4    0.117974    0.041562    0.547226    21.00000    0.03646    0.02897 =
         0.09175    0.01362   -0.00289   -0.00047
F5    4   -0.005076    0.113839    0.501276    21.00000    0.03053    0.03658 =
         0.08057    0.00773   -0.02072   -0.00632
F6    4    0.032261    0.112726    0.606659    21.00000    0.04069    0.04494 =
         0.07500    0.02212    0.02174   -0.00063
C4    1    0.280077    0.152414    0.609917    21.00000    0.03396    0.02960 =
         0.02338    0.00545   -0.00787    0.00633
F7    4    0.220972    0.187887    0.652472    21.00000    0.05461    0.04615 =
         0.01984    0.00344   -0.00522    0.01518
F8    4    0.298348    0.094198    0.636764    21.00000    0.04748    0.03303 =
         0.02946    0.01186   -0.01049    0.00972
F9    4    0.394488    0.177171    0.602156    21.00000    0.03001    0.03803 =
         0.03906   -0.00108   -0.01530    0.00201
PART 0
RESI 0
 
rem rem dsr put OC(CF3)3 with O1 C1 C2 C3 C4 on O1_1 C1_1 q7 q8 q9 resi CF3 =
rem  part 2 occ -21
 
rem the following was inserted by DSR:
SADI_CF3 C1 C2 C1 C3 C1 C4
SADI_CF3 C2 C3 C3 C4 C2 C4
SADI_CF3 O1 C2 O1 C3 O1 C4
SADI_CF3 F1 C2 F2 C2 F3 C2 F4 C3 F5 C3 F6 C3 F7 C4 F8 C4 F9 C4
SADI_CF3 F1 F2 F2 F3 F3 F1 F4 F5 F5 F6 F6 F4 F7 F8 F8 F9 F9 F7
SIMU_CF3 O1 > F9
RIGU_CF3 O1 > F9
RESI 2 CF3
PART 2 -21
O1    3    0.141375    0.206353    0.531246   -21.00000    0.02216    0.02179 =
         0.01952    0.00180   -0.00332    0.00459
C1    1    0.183465    0.146763    0.545820   -21.00000    0.02171    0.02022 =
         0.02284    0.00209   -0.00461    0.00384
C2    1    0.193544    0.140279    0.621170   -21.00000    0.03984    0.02990 =
         0.02412    0.00662   -0.00692    0.00220
F1    4    0.246602    0.192544    0.649205   -21.00000    0.04739    0.03809 =
         0.03102   -0.00244   -0.01466   -0.00186
F2    4    0.264541    0.090018    0.642001   -21.00000    0.05938    0.04458 =
         0.03985    0.01483   -0.01016    0.01619
F3    4    0.078418    0.132060    0.643157   -21.00000    0.05168    0.04520 =
         0.03266    0.00748    0.01291    0.00331
C3    1    0.091854    0.095292    0.515875   -21.00000    0.02719    0.02869 =
         0.03698   -0.00264   -0.00440    0.00168
F4    4    0.108037    0.085806    0.452507   -21.00000    0.05258    0.03582 =
         0.03513   -0.01132   -0.00753    0.00623
F5    4   -0.029733    0.112316    0.520963   -21.00000    0.02278    0.04090 =
         0.05479   -0.00365   -0.00424   -0.00243
F6    4    0.108968    0.038832    0.546076   -21.00000    0.04767    0.02513 =
         0.05182    0.00029   -0.00919   -0.00429
C4    1    0.316427    0.136913    0.519837   -21.00000    0.02990    0.02831 =
         0.04728    0.01040    0.00550    0.00540
F7    4    0.319377    0.157263    0.457839   -21.00000    0.04164    0.04029 =
         0.04208    0.01264    0.01539    0.01115
F8    4    0.352577    0.075028    0.520656   -21.00000    0.02954    0.03324 =
         0.05666    0.01268    0.01005    0.01660
F9    4    0.406468    0.168329    0.556348   -21.00000    0.02496    0.03802 =
         0.08196    0.00310   -0.00399   -0.00024
PART 0
RESI 0
rem End of DSR entry
 
SAME_0 O1 C1 > F9
RESI 3 CF3
PART 1 31
O1    3    0.082739    0.234722    0.400099    31.00000    0.01496    0.02601 =
         0.00851   -0.00270   -0.00335    0.00499
C1    1    0.035184    0.231923    0.336980    31.00000    0.02076    0.03371 =
         0.00963   -0.00411   -0.00688    0.00524
C2    1    0.149467    0.232799    0.293706    31.00000    0.03575    0.05664 =
         0.01852   -0.00586   -0.00054    0.00552
F1    4    0.118839    0.210671    0.233360    31.00000    0.04128    0.06059 =
         0.01146   -0.00630   -0.00107    0.01199
F2    4    0.245118    0.196933    0.319576    31.00000    0.02251    0.06591 =
         0.02238   -0.00675   -0.00018    0.00970
F3    4    0.193525    0.292891    0.289891    31.00000    0.06298    0.06751 =
         0.03325    0.00125    0.00470   -0.02018
C3    1   -0.052502    0.288755    0.318343    31.00000    0.04245    0.04653 =
         0.02123   -0.00498   -0.00880    0.01860
F4    4   -0.009878    0.343085    0.347030    31.00000    0.05636    0.03122 =
         0.02386   -0.00346   -0.01583    0.02034
F5    4   -0.065971    0.299877    0.254080    31.00000    0.04334    0.04382 =
         0.01596   -0.00258   -0.01016    0.02152
F6    4   -0.170092    0.277711    0.338955    31.00000    0.03327    0.09296 =
         0.03399   -0.00328   -0.00645    0.02444
C4    1   -0.039559    0.168854    0.325530    31.00000    0.04267    0.04556 =
         0.02672   -0.00260   -0.01111   -0.00702
F7    4   -0.114365    0.157493    0.373904    31.00000    0.03564    0.04600 =
         0.02752   -0.00086   -0.00791   -0.01797
F8    4   -0.113441    0.169587    0.269660    31.00000    0.05080    0.04965 =
         0.02878    0.00025   -0.02102   -0.01492
F9    4    0.043287    0.119635    0.323460    31.00000    0.07721    0.04418 =
         0.04388   -0.01151   -0.01944    0.01273
PART 0
RESI 0
 
SADI_CF3 0.02 C1 C2 C1 C3 C1 C4
SADI_CF3 0.02 F1 C2 F2 C2 F3 C2 F4 C3 F5 C3 F6 C3 F7 C4 F8 C4 F9 C4
SADI_CF3 0.04 C2 C3 C3 C4 C2 C4
SADI_CF3 0.04 O1 C2 O1 C3 O1 C4
SADI_CF3 0.04 F1 F2 F2 F3 F3 F1 F4 F5 F5 F6 F6 F4 F7 F8 F8 F9 F9 F7
DFIX_CF3 1.35 O1 C1
SADI_CF3 0.1 F1 C1 F2 C1 F3 C1 F4 C1 F5 C1 F6 C1 F7 C1 F8 C1 F9 C1
 
RESI 8 CF3
PART 2 -31
O1    3    0.083154    0.235054    0.401721   -31.00000    0.04000
C1    1    0.033194    0.232482    0.336692   -31.00000    0.04000
C2    1    0.123975    0.191409    0.295566   -31.00000    0.04000
F1    4    0.230307    0.223827    0.284027   -31.00000    0.04000
F2    4    0.067404    0.172070    0.238205   -31.00000    0.04000
F3    4    0.160333    0.138670    0.330870   -31.00000    0.04000
C3    1   -0.104224    0.202269    0.333433   -31.00000    0.04000
F4    4   -0.173190    0.228187    0.379126   -31.00000    0.04000
F5    4   -0.094280    0.138698    0.346288   -31.00000    0.04000
F6    4   -0.167514    0.209786    0.274660   -31.00000    0.04000
C4    1    0.027700    0.303384    0.311835   -31.00000    0.04000
F7    4   -0.068498    0.335348    0.337006   -31.00000    0.04000
F8    4    0.008869    0.304851    0.246089   -31.00000    0.04000
F9    4    0.136675    0.333939    0.329561   -31.00000    0.04000
PART 0
RESI 0
 
REM rem dsr put OC(CF3)3 with O1 C1 C2 on O1_3 C1_3 Q5 part 2 occ -31 resi
REM !CF3 8
 
AFIX   0
HKLF 4
 
REM  p21c in P2(1)/c
REM R1 =  0.1203 for    7085 Fo > 4sig(Fo)  and  0.1628 for all   10786 data
REM    828 parameters refined using   4373 restraints
 
END  
     
WGHT      0.2000      0.0000 

REM Highest difference peak  4.428,  deepest hole -4.055,  1-sigma level  0.234
Q1    1  -0.1974  0.2437  0.3455  11.00000  0.05    4.43
Q2    1   0.1275  0.3262  0.2907  11.00000  0.05    4.38
Q3    1   0.1073  0.1301  0.3092  11.00000  0.05    4.26
Q4    1  -0.1262  0.2528  0.4765  11.00000  0.05    0.50
Q5    1   0.4132  0.1716  0.5891  11.00000  0.05    0.50
Q6    1   0.4211  0.6637  0.2475  11.00000  0.05    0.48
Q7    1   0.7351  0.4678  0.0671  11.00000  0.05    0.47
Q8    1   0.7840  0.3709  0.1587  11.00000  0.05    0.46
Q9    1   0.1623  0.0872  0.4428  11.00000  0.05    0.46
Q10   1   0.1664 -0.0251  0.5470  11.00000  0.05    0.45
Q11   1   0.5506  0.4726  0.0339  11.00000  0.05    0.45
Q12   1   0.4293  0.3031  0.5981  11.00000  0.05    0.44
Q13   1   0.2485  0.4220  0.4969  11.00000  0.05    0.43
Q14   1   0.8691  0.4893  0.1855  11.00000  0.05    0.43
Q15   1  -0.4003  0.3605  0.5766  11.00000  0.05    0.43
Q16   1   0.3724  0.5713  0.2000  11.00000  0.05    0.42
Q17   1  -0.2119  0.2649  0.6274  11.00000  0.05    0.42
Q18   1   0.1245  0.2650  0.3635  11.00000  0.05    0.42
Q19   1   0.1296  0.1814  0.6672  11.00000  0.05    0.42
Q20   1  -0.1804  0.3021  0.3969  11.00000  0.05    0.42
