TITL p21c in P2(1)/c
    test-data/beispiel/5.res
    created by SHELXL-2016/6 at 16:53:52 on 05-Nov-2016
CELL 0.71073 10.5086 20.9035 20.5072 90 94.13 90
ZERR 4 0.0003 0.0005 0.0005 0 0.001 0
LATT 1
SYMM -X,0.5+Y,0.5-Z
SFAC  C  H  O  F  AL  GA
UNIT  1  2  3  4  5  6
LIST 6 ! automatically inserted. Change 6 to 4 for CHECKCIF!!

L.S.  10
PLAN  20
TEMP -173.18
BOND $H
fmap 2

WGHT    0.049400    0.393100
FVAR       0.08479   0.48343   0.55591
GA1   6    0.639418    0.561703    0.237772    11.00000    0.02258    0.02440 =
         0.02432    0.00008   -0.00145    0.00127
AL1   5    0.064158    0.260145    0.478645    11.00000    0.01537    0.01791 =
         0.01248    0.00026   -0.00269    0.00132
O1    3    0.120080    0.336659    0.494426    11.00000    0.01445    0.02176 =
         0.02347   -0.00009   -0.00214   -0.00291
O2    3   -0.097841    0.261274    0.489484    11.00000    0.01763    0.02418 =
         0.01555   -0.00406    0.00248    0.00104
F10   4   -0.362398    0.278516    0.447770    11.00000    0.02302    0.04023 =
         0.02897    0.00131   -0.01216    0.00374
F11   4   -0.404458    0.257464    0.546968    11.00000    0.01762    0.05015 =
         0.03179   -0.00160    0.00590   -0.00354
F12   4   -0.301403    0.189114    0.492650    11.00000    0.02542    0.02124 =
         0.04111   -0.00397   -0.00273   -0.00460
F13   4   -0.175472    0.202321    0.610260    11.00000    0.03904    0.03977 =
         0.03003    0.01650    0.00263    0.00387
F14   4   -0.031112    0.275566    0.616775    11.00000    0.02552    0.05113 =
         0.02260   -0.00420   -0.00727    0.00468
F15   4   -0.222817    0.296838    0.641346    11.00000    0.03175    0.06390 =
         0.01794   -0.00770    0.00409    0.01074
F16   4   -0.313803    0.377149    0.540550    11.00000    0.02245    0.03301 =
         0.04168   -0.00621    0.00099    0.00914
F17   4   -0.189167    0.376459    0.461529    11.00000    0.04719    0.02557 =
         0.03265    0.00720    0.00266    0.00222
F18   4   -0.110636    0.386539    0.560147    11.00000    0.02804    0.02847 =
         0.04540   -0.01592   -0.00126   -0.00172
C5    1   -0.186843    0.282708    0.526803    11.00000    0.01701    0.01847 =
         0.01798    0.00022   -0.00212   -0.00417
C6    1   -0.316216    0.251064    0.503877    11.00000    0.02382    0.03163 =
         0.02487    0.00288   -0.00174    0.00015
C7    1   -0.155278    0.264593    0.600644    11.00000    0.02003    0.03844 =
         0.02341   -0.00570   -0.00223    0.00368
C8    1   -0.200650    0.357301    0.522420    11.00000    0.02037    0.03111 =
         0.02907   -0.00643   -0.00278    0.00165
C1    1    0.223789    0.375512    0.504147    11.00000    0.01922    0.02446 =
         0.01675   -0.00034   -0.00606    0.00209
C2    1    0.324256    0.359363    0.456165    11.00000    0.01865    0.02847 =
         0.03315    0.00171    0.00208   -0.00016
F1    4    0.290860    0.379953    0.395614    11.00000    0.03767    0.04288 =
         0.02398    0.00162    0.00874   -0.00142
F2    4    0.342682    0.296329    0.451511    11.00000    0.02300    0.02615 =
         0.05130   -0.01040    0.00470    0.00386
F3    4    0.439198    0.385328    0.473759    11.00000    0.01729    0.04404 =
         0.05057   -0.00420    0.00175   -0.00678
C3    1    0.180032    0.444507    0.492855    11.00000    0.02563    0.02125 =
         0.02837    0.00266    0.00070   -0.00523
F4    4    0.100759    0.449528    0.438703    11.00000    0.03898    0.03388 =
         0.03322    0.00908   -0.00968    0.00768
F5    4    0.116221    0.466033    0.542783    11.00000    0.03319    0.02567 =
         0.03803   -0.00809    0.00266    0.00136
F6    4    0.276593    0.484828    0.485871    11.00000    0.02781    0.02726 =
         0.04871    0.00319    0.00259   -0.00680
C4    1    0.281319    0.368769    0.575106    11.00000    0.02786    0.03396 =
         0.02473   -0.00516   -0.00826   -0.00253
F7    4    0.358359    0.417667    0.594043    11.00000    0.03351    0.03715 =
         0.03469   -0.00423   -0.01418   -0.01030
F8    4    0.352077    0.314955    0.582945    11.00000    0.03615    0.03269 =
         0.04176    0.00669   -0.02389    0.00497
F9    4    0.191896    0.365437    0.617058    11.00000    0.04052    0.05331 =
         0.01801    0.00126    0.00065   -0.01022
C34   1    0.369916    0.548581    0.213715    11.00000    0.02056    0.02385 =
         0.03115   -0.00483   -0.00132   -0.00159
AFIX  43
H34   2    0.341321    0.506151    0.204792    11.00000   -1.20000
AFIX   0
C33   1    0.380809    0.569642    0.277486    11.00000    0.01555    0.03193 =
         0.02070   -0.00127   -0.00368    0.00481
C32   1    0.425895    0.630971    0.290285    11.00000    0.01698    0.03346 =
         0.02421   -0.00848   -0.00087    0.00502
AFIX  43
H32   2    0.437203    0.645008    0.334382    11.00000   -1.20000
AFIX   0
C35   1    0.399926    0.588094    0.161257    11.00000    0.01897    0.02882 =
         0.01756   -0.00178   -0.00575    0.00263
C30   1    0.443959    0.649581    0.176207    11.00000    0.01984    0.02394 =
         0.02167    0.00432   -0.00109    0.00413
AFIX  43
H30   2    0.467135    0.676800    0.141906    11.00000   -1.20000
AFIX   0
C36   1    0.385894    0.565447    0.092123    11.00000    0.05037    0.03031 =
         0.02353    0.00318   -0.00502    0.00546
AFIX 137
H36A  2    0.302629    0.578740    0.072050    11.00000   -1.50000
H36B  2    0.392123    0.518683    0.091168    11.00000   -1.50000
H36C  2    0.453713    0.584041    0.067738    11.00000   -1.50000
AFIX   0
C31   1    0.454920    0.672343    0.241043    11.00000    0.01482    0.02767 =
         0.03155   -0.00377   -0.00368    0.00311
C37   1    0.341537    0.527543    0.332385    11.00000    0.02457    0.04511 =
         0.03136    0.00233    0.00174   -0.00756
AFIX 137
H37A  2    0.412649    0.523707    0.365790    11.00000   -1.50000
H37B  2    0.318565    0.485031    0.315165    11.00000   -1.50000
H37C  2    0.267904    0.546563    0.351838    11.00000   -1.50000
AFIX   0
C38   1    0.493624    0.740392    0.255361    11.00000    0.03899    0.02492 =
         0.04233   -0.00684    0.00093   -0.00388
AFIX 137
H38A  2    0.521416    0.760369    0.215555    11.00000   -1.50000
H38B  2    0.563915    0.741105    0.289459    11.00000   -1.50000
H38C  2    0.420783    0.764083    0.270408    11.00000   -1.50000
AFIX   0

C21   1    0.721483    0.447407    0.167507    11.00000    0.02925    0.02416 =
         0.02757    0.00048   -0.00135    0.01034
C20   1    0.838817    0.474526    0.190081    11.00000    0.02664    0.02750 =
         0.02625    0.00135    0.00685    0.00578
AFIX  43
H20   2    0.894436    0.490518    0.159389    11.00000   -1.20000
AFIX   0
C23   1    0.674054    0.430194    0.280727    11.00000    0.02406    0.01783 =
         0.03400    0.00389    0.00453    0.00367
C25   1    0.875251    0.478410    0.256955    11.00000    0.02154    0.02507 =
         0.03766    0.00476   -0.01051    0.00493
C22   1    0.641561    0.425245    0.213299    11.00000    0.02446    0.01826 =
         0.03459   -0.00035   -0.00290   -0.00150
AFIX  43
H22   2    0.562540    0.406159    0.198707    11.00000   -1.20000
AFIX   0
C28   1    0.685281    0.443804    0.095051    11.00000    0.05870    0.03446 =
         0.02786   -0.01108   -0.00364    0.00426
AFIX 137
H28A  2    0.660251    0.486376    0.078734    11.00000   -1.50000
H28B  2    0.613666    0.414131    0.087012    11.00000   -1.50000
H28C  2    0.758413    0.428565    0.072347    11.00000   -1.50000
AFIX   0
C27   1    0.588465    0.401681    0.329036    11.00000    0.04007    0.04636 =
         0.03676    0.00855    0.00751   -0.00170
AFIX 137
H27A  2    0.572755    0.433445    0.362674    11.00000   -1.50000
H27B  2    0.629824    0.364014    0.349607    11.00000   -1.50000
H27C  2    0.507194    0.389054    0.306222    11.00000   -1.50000
AFIX   0
C24   1    0.789290    0.456520    0.301616    11.00000    0.03898    0.02307 =
         0.02337    0.00026   -0.00678    0.01112
AFIX  43
H24   2    0.811660    0.460079    0.347187    11.00000   -1.20000
AFIX   0
C26   1    1.004216    0.505479    0.281521    11.00000    0.02767    0.05745 =
         0.05216    0.00998   -0.01135   -0.00116
AFIX 137
H26A  2    1.041881    0.528399    0.245934    11.00000   -1.50000
H26B  2    1.060828    0.470447    0.296699    11.00000   -1.50000
H26C  2    0.993052    0.535037    0.317762    11.00000   -1.50000
AFIX   0

SAME_CF3 O1 > F9
SIMU_CF3 O1 > F9
RIGU_CF3 O1 > F9
EADP O1_1 O1_2
EADP C1_1 C1_2
SADI Al1_0 O1_1 Al1_0 O1_2
SADI Al1_0 C1_1 Al1_0 C1_2
RESI 1 CF3
SAME_0 O1 C1 > F9
PART 1 21
O1    3    0.156692    0.209642    0.530001    21.00000    0.02315    0.02219 =
         0.01893    0.00227   -0.00526    0.00515
C1    1    0.197695    0.149686    0.544131    21.00000    0.02311    0.01933 =
         0.02257    0.00291   -0.00585    0.00520
C2    1    0.282991    0.125315    0.491233    21.00000    0.03936    0.03109 =
         0.02323    0.00341   -0.00131    0.01347
F1    4    0.360748    0.075978    0.512602    21.00000    0.03664    0.03565 =
         0.03483    0.00716    0.00383    0.01729
F2    4    0.359755    0.171939    0.471788    21.00000    0.04109    0.03438 =
         0.03281   -0.00015    0.01321    0.01417
F3    4    0.210835    0.104067    0.437922    21.00000    0.07243    0.03058 =
         0.03216   -0.01057   -0.01708    0.03014
C3    1    0.086991    0.103824    0.549299    21.00000    0.02692    0.03316 =
         0.05474    0.01002   -0.00086    0.00109
F4    4    0.120410    0.041250    0.544284    21.00000    0.03266    0.03244 =
         0.07659    0.01314    0.00589   -0.00254
F5    4   -0.004747    0.113714    0.499154    21.00000    0.02871    0.04631 =
         0.06699   -0.00018   -0.00756    0.00283
F6    4    0.032053    0.111727    0.606598    21.00000    0.04342    0.04534 =
         0.06816    0.01912    0.01300    0.00142
C4    1    0.278833    0.152099    0.609841    21.00000    0.02997    0.02802 =
         0.02149    0.00544   -0.00704    0.00570
F7    4    0.217441    0.187353    0.652825    21.00000    0.03887    0.04131 =
         0.02281    0.00659   -0.00204    0.00654
F8    4    0.297811    0.093412    0.637836    21.00000    0.05603    0.03390 =
         0.03278    0.01228   -0.01698    0.00691
F9    4    0.395366    0.177026    0.601546    21.00000    0.03231    0.03248 =
         0.03649   -0.00522   -0.01212    0.00157
PART 0
RESI 0

SADI_CF3 C1 C2 C1 C3 C1 C4
SADI_CF3 C2 C3 C3 C4 C2 C4
SADI_CF3 O1 C2 O1 C3 O1 C4
SADI_CF3 F1 C2 F2 C2 F3 C2 F4 C3 F5 C3 F6 C3 F7 C4 F8 C4 F9 C4
SADI_CF3 F1 F2 F2 F3 F3 F1 F4 F5 F5 F6 F6 F4 F7 F8 F8 F9 F9 F7
SIMU_CF3 O1 > F9
RIGU_CF3 O1 > F9
RESI 2 CF3
PART 2 -21
O1    3    0.141262    0.206411    0.531112   -21.00000    0.02315    0.02219 =
         0.01893    0.00227   -0.00526    0.00515
C1    1    0.182745    0.146882    0.545975   -21.00000    0.02311    0.01933 =
         0.02257    0.00291   -0.00585    0.00520
C2    1    0.194314    0.140728    0.620449   -21.00000    0.03539    0.02727 =
         0.02418    0.00626   -0.00603    0.00371
F1    4    0.248885    0.193042    0.648981   -21.00000    0.03421    0.03769 =
         0.02737   -0.00162   -0.00707   -0.00212
F2    4    0.268546    0.090152    0.640921   -21.00000    0.06828    0.04850 =
         0.03951    0.01276   -0.01499    0.02865
F3    4    0.077806    0.131702    0.642542   -21.00000    0.04861    0.03928 =
         0.03614    0.01004    0.00868    0.00702
C3    1    0.092355    0.095547    0.516890   -21.00000    0.02349    0.02815 =
         0.03557   -0.00535   -0.00249    0.00149
F4    4    0.107239    0.085328    0.452065   -21.00000    0.04983    0.03613 =
         0.03726   -0.01219   -0.00496    0.00697
F5    4   -0.030716    0.113462    0.521229   -21.00000    0.01707    0.03098 =
         0.04642   -0.00543    0.00071   -0.00653
F6    4    0.106260    0.039107    0.548815   -21.00000    0.04343    0.02531 =
         0.05668    0.00120   -0.00679   -0.00388
C4    1    0.315435    0.136991    0.519595   -21.00000    0.02908    0.02511 =
         0.04335    0.00882    0.00305    0.00556
F7    4    0.318888    0.156870    0.456884   -21.00000    0.03583    0.03737 =
         0.04032    0.00961    0.01410    0.00673
F8    4    0.349210    0.073474    0.519443   -21.00000    0.03106    0.02965 =
         0.05797    0.00796    0.00788    0.01227
F9    4    0.407448    0.168441    0.556509   -21.00000    0.02708    0.03805 =
         0.08282   -0.00281   -0.00569    0.00280
PART 0
RESI 0

RESI 3 CF3
SIMU O1_3 > F9_3
PART 1 31
O1    3    0.081800    0.235411    0.399962    31.00000    0.02269
C1    1    0.033372    0.232537    0.337248    31.00000    0.02263
C2    1    0.146121    0.230044    0.293483    31.00000    0.07563
F1    4    0.113536    0.207456    0.233219    31.00000    0.04423
F2    4    0.245556    0.200608    0.318034    31.00000    0.04443
F3    4    0.177383    0.298455    0.290893    31.00000    0.06590
C3    1   -0.047007    0.289792    0.317142    31.00000    0.06657
F4    4   -0.015523    0.342850    0.348530    31.00000    0.04231
F5    4   -0.064007    0.300531    0.253531    31.00000    0.03919
F6    4   -0.174400    0.269329    0.340816    31.00000    0.06549
C4    1   -0.042812    0.170935    0.325702    31.00000    0.06900
F7    4   -0.111534    0.156135    0.374179    31.00000    0.04207
F8    4   -0.120582    0.172784    0.270319    31.00000    0.05058
F9    4    0.058836    0.122805    0.319484    31.00000    0.06663
RESI 0
PART 0

REM Restraints for Fragment oc(cf3)3, Nonafluoro-tert-butoxy, [(CF3)3CO]-
REM from: TURBOMOLE V6.0 B-P86/def-SV(P). Please cite
REM doi:10.1107/S1600576715005580
RESI 4 CF3
REM The restraints for residue CF3 are in this file:
+dsr_CF3_4_5a_dfx.dfix
PART 2 -31
O1    3    0.077864    0.235782    0.401108   -31.00000    0.04000
C1    1    0.032052    0.233931    0.335391   -31.00000    0.04000
C2    1    0.026210    0.303885    0.307064   -31.00000    0.04000
F1    4   -0.072256    0.336680    0.328617   -31.00000    0.04000
F2    4    0.017230    0.305183    0.241488   -31.00000    0.04000
F3    4    0.134756    0.334979    0.328573   -31.00000    0.04000
C3    1    0.122077    0.190978    0.295694   -31.00000    0.04000
F4    4    0.149704    0.136352    0.327818   -31.00000    0.04000
F5    4    0.233730    0.222338    0.289700   -31.00000    0.04000
F6    4    0.070845    0.176833    0.235521   -31.00000    0.04000
C4    1   -0.105031    0.204273    0.334354   -31.00000    0.04000
F7    4   -0.099092    0.140871    0.345436   -31.00000    0.04000
F8    4   -0.168228    0.213914    0.275571   -31.00000    0.04000
F9    4   -0.171553    0.230920    0.380544   -31.00000    0.04000
PART 0
RESI 0

REM rem dsr put oc(cf3)3 with o1 c1 c2 c3 c4 on O1_3 c1_3 q6 Q4 q7 resi cf3
REM !PART 2 occ -31 dfix

AFIX   0
HKLF 4




REM  p21c in P2(1)/c
REM R1 =  0.1556 for    7085 Fo > 4sig(Fo)  and  0.2015 for all   10786 data
REM    758 parameters refined using   1919 restraints

END  
     
WGHT      0.2000      0.0000 

REM Highest difference peak  5.293,  deepest hole -5.036,  1-sigma level  0.308
Q1    1  -0.1989  0.2428  0.3453  11.00000  0.05    4.13
Q2    1   0.1254  0.3274  0.2902  11.00000  0.05    4.08
Q3    1  -0.1637  0.2873  0.3369  11.00000  0.05    3.51
Q4    1   0.2097  0.2881  0.2891  11.00000  0.05    3.50
Q5    1   0.0288  0.1146  0.3281  11.00000  0.05    3.34
Q6    1   0.1087  0.1315  0.3055  11.00000  0.05    3.24
Q7    1   0.4090  0.1722  0.5886  11.00000  0.05    0.79
Q8    1   0.3500  0.2807  0.4633  11.00000  0.05    0.73
Q9    1  -0.1707  0.3114  0.5196  11.00000  0.05    0.70
Q10   1  -0.1180  0.2517  0.4795  11.00000  0.05    0.67
Q11   1  -0.2714  0.1689  0.4873  11.00000  0.05    0.62
Q12   1  -0.1891  0.1471  0.5143  11.00000  0.05    0.62
Q13   1   0.4145  0.6687  0.2407  11.00000  0.05    0.62
Q14   1   0.1511  0.0858  0.4434  11.00000  0.05    0.61
Q15   1  -0.3051  0.2108  0.4900  11.00000  0.05    0.61
Q16   1   0.2580  0.4231  0.4975  11.00000  0.05    0.61
Q17   1  -0.2203  0.2683  0.6279  11.00000  0.05    0.60
Q18   1   0.8131  0.4480  0.2897  11.00000  0.05    0.60
Q19   1   0.0881  0.1470  0.6518  11.00000  0.05    0.60
Q20   1  -0.0013  0.2173  0.6408  11.00000  0.05    0.60
