    p21n_cf3.res created by SHELXL-2014/7
REM Solution 1  R1  0.226,  Alpha = 0.0301  in P2(1)/n
REM C26 F6 S
TITL p21n in P2(1)/n
CELL  0.71073  17.2012   6.5879  17.8587   90.000   98.492   90.000
ZERR    4.00   0.0063   0.0029   0.0062   0.000   0.020   0.000
LATT  1
SYMM 1/2-X, 1/2+Y, 1/2-Z
SFAC C H F S O
UNIT 88 64 24 4 12
TEMP -173.150
SIZE 0.037 0.122 0.146
L.S. 8
BOND $H
LIST 4
FMAP 2
PLAN 20
ACTA
CONF
WGHT    0.065900    4.305900
FVAR       0.34340
S1    4    0.358236    1.025192    0.310091    11.00000    0.01589    0.01375 =
         0.02370    0.00150    0.00008    0.00055
F1    3   0.73750   1.51920   0.32830  11.00000 0.05 
rem dsr put CF3 on C22  
C22   1    0.671866    1.535515    0.269485    11.00000    0.03939    0.02612 =
         0.04080   -0.00828    0.01420   -0.01678
C1    1    0.094798   -0.311207    0.514399    11.00000    0.04625    0.03193 =
         0.03407   -0.00245    0.01769   -0.01625
O1    5    0.355440    0.382775    0.502877    11.00000    0.03091    0.03573 =
         0.02335    0.00403   -0.00536   -0.00836
O2    5    0.317119    0.656304    0.254969    11.00000    0.02003    0.01882 =
         0.01946   -0.00364   -0.00190   -0.00215
F2    3   0.65520   1.70050   0.29980  11.00000 0.05 
O3    5    0.448394    0.743146    0.256190    11.00000    0.02219    0.01107 =
         0.01893   -0.00525    0.00393   -0.00078
F3    3   0.72100   1.49890   0.21990  11.00000 0.05 
C2    1    0.144390   -0.139893    0.498056    11.00000    0.03494    0.02675 =
         0.02120   -0.00205    0.01065   -0.01047
C3    1    0.216253   -0.109207    0.545053    11.00000    0.03856    0.02067 =
         0.02149    0.00171    0.00139    0.00187
AFIX  43
H3    2    0.231674   -0.198299    0.586411    11.00000   -1.20000
AFIX   0
C4    1    0.264805    0.049752    0.531624    11.00000    0.02781    0.01669 =
         0.02042    0.00116    0.00454   -0.00282
AFIX  43
H4    2    0.313956    0.068483    0.562898    11.00000   -1.20000
AFIX   0
C5    1    0.240973    0.182499    0.471705    11.00000    0.02925    0.01858 =
         0.01255   -0.00049    0.00066    0.00001
C6    1    0.170077    0.156679    0.423535    11.00000    0.02435    0.02002 =
         0.02076    0.00207    0.00499   -0.00550
AFIX  43
H6    2    0.154914    0.246957    0.382493    11.00000   -1.20000
AFIX   0
C7    1    0.121421   -0.007966    0.437620    11.00000    0.02749    0.02845 =
         0.02692    0.00116   -0.00100   -0.01138
AFIX  43
H7    2    0.072783   -0.028910    0.405737    11.00000   -1.20000
AFIX   0
C8    1    0.295026    0.356055    0.459965    11.00000    0.01871    0.02320 =
         0.01520   -0.00454    0.00482    0.00051
C9    1    0.270937    0.493429    0.392474    11.00000    0.02062    0.01895 =
         0.01853   -0.00063    0.00380   -0.00222
AFIX  23
H9A   2    0.218766    0.552557    0.396334    11.00000   -1.20000
H9B   2    0.265703    0.410923    0.345666    11.00000   -1.20000
AFIX   0
 
C10   1    0.329363    0.666195    0.386116    11.00000    0.01761    0.01281 =
         0.01454   -0.00020   -0.00003    0.00049
AFIX  13
H10   2    0.335507    0.754244    0.432225    11.00000   -1.20000
AFIX   0
C11   1    0.410360    0.596997    0.367299    11.00000    0.01595    0.01725 =
         0.01428   -0.00005    0.00086    0.00155
AFIX  13
H11   2    0.427546    0.462652    0.390026    11.00000   -1.20000
AFIX   0
C12   1    0.395788    0.594311    0.278383    11.00000    0.01734    0.01639 =
         0.01864   -0.00268    0.00378    0.00403
AFIX  13
H12   2    0.406090    0.457019    0.258074    11.00000   -1.20000
AFIX   0
C13   1    0.301387    0.790119    0.314448    11.00000    0.01616    0.01651 =
         0.01497    0.00221    0.00231    0.00491
AFIX  13
H13   2    0.243909    0.820189    0.310053    11.00000   -1.20000
AFIX   0
C14   1    0.471788    0.762332    0.385371    11.00000    0.01963    0.01879 =
         0.01800    0.00402   -0.00640    0.00164
AFIX  23
H14A  2    0.464007    0.838844    0.431397    11.00000   -1.20000
H14B  2    0.525716    0.705932    0.392003    11.00000   -1.20000
AFIX   0
C15   1    0.455505    0.895209    0.314233    11.00000    0.01758    0.01598 =
         0.01383   -0.00173    0.00159   -0.00156
C16   1    0.512999    1.054740    0.301367    11.00000    0.01553    0.01494 =
         0.02207    0.00127   -0.00265    0.00078
C17   1    0.548192    1.172299    0.361796    11.00000    0.02596    0.01877 =
         0.01655   -0.00125    0.00105    0.00055
AFIX  43
H17   2    0.536961    1.144038    0.411253    11.00000   -1.20000
AFIX   0
C18   1    0.599052    1.329075    0.351729    11.00000    0.02423    0.01880 =
         0.02025   -0.00295    0.00130   -0.00021
AFIX  43
H18   2    0.620532    1.411535    0.393330    11.00000   -1.20000
AFIX   0
C19   1    0.618909    1.365570    0.278054    11.00000    0.02665    0.02828 =
         0.03193   -0.00110    0.01466   -0.00033
C20   1    0.586301    1.248719    0.219412    11.00000    0.03047    0.03220 =
         0.02975   -0.00116    0.01083   -0.00206
AFIX  43
H20   2    0.599315    1.272840    0.170303    11.00000   -1.20000
AFIX   0
 
C21   1    0.532531    1.089399    0.230198    11.00000    0.03797    0.02045 =
         0.02269   -0.00169    0.00443   -0.00783
AFIX  43
H21   2    0.510368    1.007837    0.188591    11.00000   -1.20000
 
REM #####
AFIX   0
AFIX 0 ! chuebsch want to keep this here!!
REM #####
HKLF 4
 
REM  p21n in P2(1)/n
REM R1 =  0.2865 for    3554 Fo > 4sig(Fo)  and  0.3026 for all    4254 data
REM    235 parameters refined using      0 restraints
 
END 
 
WGHT      0.2000      0.0000 
REM Highest difference peak  7.633,  deepest hole -1.250,  1-sigma level  0.531
Q1    1   0.0422 -0.2543  0.5614  11.00000  0.05    7.63
Q2    1   0.1260 -0.4664  0.5463  11.00000  0.05    7.03
Q4    1   0.0594 -0.3970  0.4507  11.00000  0.05    5.77
Q7    1   0.6352  1.6484  0.2031  11.00000  0.05    4.00
Q8    1   0.6201  1.3560  0.2961  11.00000  0.05    1.11
Q9    1   0.1325 -0.1124  0.3784  11.00000  0.05    0.94
Q10   1   0.5689  1.2488  0.3567  11.00000  0.05    0.90
Q11   1   0.6780  1.3411  0.1171  11.00000  0.05    0.88
Q12   1   0.0441 -0.1355  0.4984  11.00000  0.05    0.80
Q13   1   0.1579  0.2075  0.5030  11.00000  0.05    0.78
Q14   1   0.3464  0.5185  0.1918  11.00000  0.05    0.78
Q15   1   0.0253 -0.3983  0.5156  11.00000  0.05    0.71
Q16   1   0.1794  0.2843  0.5508  11.00000  0.05    0.71
Q17   1   0.0818 -0.0979  0.5546  11.00000  0.05    0.70
Q18   1   0.7526  1.6752  0.3614  11.00000  0.05    0.70
Q19   1   0.3536  0.0222  0.6579  11.00000  0.05    0.69
Q20   1   0.6636  1.1043  0.1620  11.00000  0.05    0.67
