REM Solution 1  R1  0.226,  Alpha = 0.0301  in P2(1)/n
REM C26 F6 S
TITL p21n in P2(1)/n
CELL  0.71073  17.2012   6.5879  17.8587   90.000   98.492   90.000
ZERR    4.00   0.0063   0.0029   0.0062   0.000   0.020   0.000
LATT  1
SYMM 1/2-X, 1/2+Y, 1/2-Z
SFAC  C  H  F  S  O
UNIT  1  2  3  4  5
TEMP -173.150
SIZE 0.037 0.122 0.146
L.S.  8
BOND $H
LIST 4
FMAP 2
PLAN 20
REM ACTA
CONF
WGHT    0.065900    4.305900
FVAR       0.34340
S1    4    0.358236    1.025192    0.310091    11.00000    0.01589    0.01375 =
         0.02370    0.00150    0.00008    0.00055
C22   1    0.671866    1.535515    0.269485    11.00000    0.04000
rem dsr put CF6 on C22
C1    1    0.094798   -0.311200    0.514399    11.00000    0.04000
  
REM CF3 group made by DSR:
SADI 0.02 C1 F1B C1 F2B C1 F3B
SADI 0.04 F1B F2B F2B F3B F3B F1B
SADI 0.1 C1 F1B C1 F2B C1 F3B
RIGU C2 C1 F1B F2B F3B
 
F1B   3    0.041940   -0.258324    0.558005    11.00000    0.04000
F2B   3    0.136229   -0.461800    0.550050    11.00000    0.04000
F3B   3    0.054770   -0.391219    0.452099    11.00000    0.04000
O1    5    0.355440    0.382775    0.502877    11.00000    0.03091    0.03573 =
         0.02335    0.00403   -0.00536   -0.00836
O2    5    0.317119    0.656304    0.254969    11.00000    0.02003    0.01882 =
         0.01946   -0.00364   -0.00190   -0.00215
O3    5    0.448394    0.743146    0.256190    11.00000    0.02219    0.01107 =
         0.01893   -0.00525    0.00393   -0.00078
C2    1    0.144390   -0.139893    0.498056    11.00000    0.03494    0.02675 =
         0.02120   -0.00205    0.01065   -0.01047
C3    1    0.216253   -0.109207    0.545053    11.00000    0.03856    0.02067 =
         0.02149    0.00171    0.00139    0.00187
AFIX  43
H3    2    0.231673   -0.198299    0.586411    11.00000   -1.20000
AFIX   0
C4    1    0.264805    0.049752    0.531624    11.00000    0.02781    0.01669 =
         0.02042    0.00116    0.00454   -0.00282
AFIX  43
H4    2    0.313956    0.068483    0.562898    11.00000   -1.20000
AFIX   0
C5    1    0.240973    0.182499    0.471705    11.00000    0.02925    0.01858 =
         0.01255   -0.00049    0.00066    0.00001
C6    1    0.170077    0.156679    0.423535    11.00000    0.02435    0.02002 =
         0.02076    0.00207    0.00499   -0.00550
AFIX  43
H6    2    0.154914    0.246956    0.382493    11.00000   -1.20000
AFIX   0
C7    1    0.121421   -0.007966    0.437620    11.00000    0.02749    0.02845 =
         0.02692    0.00116   -0.00100   -0.01138
AFIX  43
H7    2    0.072783   -0.028909    0.405737    11.00000   -1.20000
AFIX   0
C8    1    0.295026    0.356055    0.459965    11.00000    0.01871    0.02320 =
         0.01520   -0.00454    0.00482    0.00051
C9    1    0.270937    0.493429    0.392474    11.00000    0.02062    0.01895 =
         0.01853   -0.00063    0.00380   -0.00222
AFIX  23
H9A   2    0.218766    0.552556    0.396334    11.00000   -1.20000
H9B   2    0.265703    0.410922    0.345666    11.00000   -1.20000
AFIX   0
 
C10   1    0.329363    0.666195    0.386116    11.00000    0.01761    0.01281 =
         0.01454   -0.00020   -0.00003    0.00049
AFIX  13
H10   2    0.335507    0.754244    0.432225    11.00000   -1.20000
AFIX   0
C11   1    0.410360    0.596997    0.367299    11.00000    0.01595    0.01725 =
         0.01428   -0.00005    0.00086    0.00155
AFIX  13
H11   2    0.427546    0.462652    0.390025    11.00000   -1.20000
AFIX   0
C12   1    0.395788    0.594311    0.278383    11.00000    0.01734    0.01639 =
         0.01864   -0.00268    0.00378    0.00403
AFIX  13
H12   2    0.406090    0.457019    0.258073    11.00000   -1.20000
AFIX   0
C13   1    0.301387    0.790119    0.314448    11.00000    0.01616    0.01651 =
         0.01497    0.00221    0.00231    0.00491
AFIX  13
H13   2    0.243909    0.820189    0.310052    11.00000   -1.20000
AFIX   0
C14   1    0.471788    0.762332    0.385371    11.00000    0.01963    0.01879 =
         0.01800    0.00402   -0.00640    0.00164
AFIX  23
H14A  2    0.525715    0.705933    0.392004    11.00000   -1.20000
H14B  2    0.464006    0.838845    0.431396    11.00000   -1.20000
AFIX   0
C15   1    0.455505    0.895209    0.314233    11.00000    0.01758    0.01598 =
         0.01383   -0.00173    0.00159   -0.00156
C16   1    0.512999    1.054740    0.301367    11.00000    0.01553    0.01494 =
         0.02207    0.00127   -0.00265    0.00078
C17   1    0.548192    1.172299    0.361796    11.00000    0.02596    0.01877 =
         0.01655   -0.00125    0.00105    0.00055
AFIX  43
H17   2    0.536960    1.144038    0.411253    11.00000   -1.20000
AFIX   0
C18   1    0.599052    1.329075    0.351729    11.00000    0.02423    0.01880 =
         0.02025   -0.00295    0.00130   -0.00021
AFIX  43
H18   2    0.620532    1.411535    0.393330    11.00000   -1.20000
AFIX   0
C19   1    0.618909    1.365570    0.278054    11.00000    0.02665    0.02828 =
         0.03193   -0.00110    0.01466   -0.00033
C20   1    0.586301    1.248719    0.219412    11.00000    0.03047    0.03220 =
         0.02975   -0.00116    0.01083   -0.00206
AFIX  43
H20   2    0.599313    1.272841    0.170303    11.00000   -1.20000
AFIX   0
 
C21   1    0.532531    1.089399    0.230198    11.00000    0.03797    0.02045 =
         0.02269   -0.00169    0.00443   -0.00783
AFIX  43
H21   2    0.510369    1.007837    0.188591    11.00000   -1.20000
 
REM #####
REM #####
AFIX   0
HKLF 4
 
REM  p21n in P2(1)/n
REM R1 =  0.2642 for    3554 Fo > 4sig(Fo)  and  0.2853 for all    4254 data
REM    249 parameters refined using      9 restraints
 
END 
 
WGHT      0.2000      0.0000 

REM Highest difference peak  4.832,  deepest hole -5.471,  1-sigma level  0.422
Q1    1   0.7285  1.4726  0.2255  11.00000  0.05    4.83
Q2    1   0.6640  1.6941  0.3137  11.00000  0.05    4.74
Q3    1   0.0188 -0.3144  0.4629  11.00000  0.05    4.39
Q4    1   0.6364  1.6475  0.2019  11.00000  0.05    4.14
Q5    1   0.1149 -0.4858  0.5121  11.00000  0.05    2.57
Q6    1   0.0649 -0.2489  0.5887  11.00000  0.05    2.52
Q7    1   0.0212 -0.2437  0.5153  11.00000  0.05    2.25
Q8    1   0.0856 -0.4487  0.4460  11.00000  0.05    2.02
Q9    1   0.1186 -0.4304  0.5785  11.00000  0.05    1.79
Q10   1   0.7344  1.5596  0.3619  11.00000  0.05    1.28
Q11   1   0.0752 -0.2651  0.6425  11.00000  0.05    0.87
Q12   1   0.3058  0.9286  0.3158  11.00000  0.05    0.75
Q13   1   0.3826  0.6846  0.2395  11.00000  0.05    0.73
Q14   1   0.4836  1.1662  0.3244  11.00000  0.05    0.72
Q15   1   0.5814  1.4068  0.2417  11.00000  0.05    0.71
Q16   1   0.8000  1.5533  0.3075  11.00000  0.05    0.70
Q17   1   0.4827  0.9609  0.2438  11.00000  0.05    0.68
Q18   1   0.5223  1.1670  0.4328  11.00000  0.05    0.64
Q19   1   0.0780 -0.1215  0.6376  11.00000  0.05    0.64
Q20   1   0.2548  0.7974  0.3652  11.00000  0.05    0.61
