TITL p21c in P2(1)/c
CELL 0.71073 10 10 10 90 90 90
ZERR 4 0.0003 0.0005 0.0005 0 0.001 0
LATT 1
SFAC  C H O F Al Ga
UNIT 136 96 16 144 4 4


C1 1  0.2 0.5 0.8 11.0 0.1 0.5 0.1  0 0 0

c2 1 0.50895027 -0.01648535 0.09750084  11 0.001
c3 1 -0.35004746 0.07502934 0.30327995  11 0.001
c4 1 0.20205112 -0.04043399 0.48715535  11 0.001

 
HKLF 4
 
END 
