TITL toluene
REM This file was exported by DSR version 1.4.0
REM Name: Toluene, C7H8
REM Source: GRADE import
REM Gradeserver from https://globalphasong.org
CELL  0.71  100  100  100  90  90  90
LATT  -1
SFAC C
UNIT 1 
WGHT  0.1
FVAR  1
C1    1     0.012000    -0.000230     0.036150   11.00   0.04
C2    1     0.012030    -0.000120     0.021060   11.00   0.04
C3    1     0.000150    -0.000110     0.013900   11.00   0.04
C4    1     0.000150    -0.000010     0.000050   11.00   0.04
C5    1     0.012080     0.000080    -0.006880   11.00   0.04
C6    1     0.023980     0.000060     0.000090   11.00   0.04
C7    1     0.023940    -0.000040     0.013940   11.00   0.04
HKLF 4
END
