TITL 12-dichlorobenz
REM This file was exported by DSR version 1.5.13-dbexport
REM Src: CCDC PUCJIH
REM Name: 1,2-Dichlorobenzene, C6H4Cl2
CELL 0.71073    18.312   11.956   21.093   90.000  110.907   90.000
ZERR    1.00   0.000    0.000    0.000    0.000    0.000    0.000
LATT  -1
SFAC CL  C
UNIT 1  1 
WGHT  0.1
FVAR  1


Cl1    1   0.821120   0.209100   0.256820   11.00   0.04
Cl2    1   0.785490   -0.034180   0.298930   11.00   0.04
C1    2   0.774230   0.109800   0.196550   11.00   0.04
C2    2   0.758320   0.004500   0.214590   11.00   0.04
C3    2   0.720900   -0.073500   0.164770   11.00   0.04
C4    2   0.700250   -0.045200   0.097170   11.00   0.04
C5    2   0.716920   0.060200   0.079560   11.00   0.04
C6    2   0.753340   0.138300   0.129000   11.00   0.04
HKLF 4
END
