TITL 12-difluorobenz
REM This file was exported by DSR version 1.5.13-dbexport
REM Name: 1,2-Difluorobenzene, C6H4F2
REM Src: Gaussian 03 B3LYP/6-31+G(d,p) Opt
CELL 0.71073    50.000   50.000   50.000   90.000   90.000   90.000
ZERR    1.00   0.000    0.000    0.000    0.000    0.000    0.000
LATT  -1
SFAC C  F
UNIT 1  1 
WGHT  0.1
FVAR  1


C1    1     0.010674     0.013936    -0.000000   11.00   0.04
C2    1     0.010675    -0.013936     0.000000   11.00   0.04
C3    1    -0.013236    -0.028075     0.000000   11.00   0.04
C4    1    -0.037390    -0.013977     0.000000   11.00   0.04
C5    1    -0.037390     0.013976     0.000000   11.00   0.04
C6    1    -0.013237     0.028075     0.000000   11.00   0.04
F1    2     0.034273     0.027109     0.000000   11.00   0.04
F2    2     0.034274    -0.027108     0.000000   11.00   0.04
HKLF 4
END
