TITL acetate
REM This file was exported by DSR version 1.5.13-dbexport
REM Src: CCDC LIBXUR
REM Name: Acetate anion, C2H3O2-
CELL 0.71073     7.080   17.712   15.923   90.000   94.618   90.000
ZERR    1.00   0.000    0.000    0.000    0.000    0.000    0.000
LATT  -1
SFAC O  C
UNIT 1  1 
WGHT  0.1
FVAR  1


O1    1   0.230980   0.431130   0.855950   11.00   0.04
O2    1   0.404410   0.525370   0.816610   11.00   0.04
C1    2   0.254300   0.486810   0.808840   11.00   0.04
C2    2   0.099200   0.507650   0.743010   11.00   0.04
HKLF 4
END
