TITL acetonitrile
REM This file was exported by DSR version 1.5.13-dbexport
REM Src: CCDC CISDOZ
REM Name: Acetonitrile, C2H3N, NMe
CELL 0.71073     7.731   11.868   23.690   90.000   90.000   90.000
ZERR    1.00   0.000    0.000    0.000    0.000    0.000    0.000
LATT  -1
SFAC N  C
UNIT 1  1 
WGHT  0.1
FVAR  1


N1    1   0.369100   0.221800   0.020510   11.00   0.04
C1    2   0.260300   0.183900   0.046650   11.00   0.04
C2    2   0.119500   0.135000   0.079280   11.00   0.04
HKLF 4
END
