TITL acetone
REM This file was exported by DSR version 1.5.13-dbexport
REM Src: CCDC HIXHIF05
REM Name: Acetone, C3H6O
CELL 0.71073     6.393    5.342   10.733   90.000   90.000   90.000
ZERR    1.00   0.000    0.000    0.000    0.000    0.000    0.000
LATT  -1
SFAC O  C
UNIT 1  1 
WGHT  0.1
FVAR  1


O1    1   0.296100   0.183000   0.250000   11.00   0.04
C1    2   0.259300   0.404400   0.250000   11.00   0.04
C2    2   0.232000   0.550600   0.131290   11.00   0.04
C3    2   0.232000   0.550600   0.368710   11.00   0.04
HKLF 4
END
