TITL LIBXUR
CELL 0.71073 7.0795 17.7124 15.9227 90 94.618 90
ZERR 4 0.0003 0.0007 0.0007 0 0.002 0
LATT 1
SYMM -x,1/2+y,1/2-z
SFAC C H O
UNIT 8 12 8
FVAR 1.00
O1      3  0.230980  0.431130  0.855950  1.000000 0.05000
O2      3  0.404410  0.525370  0.816610  1.000000 0.05000
C1     1  0.254300  0.486810  0.808840  1.000000 0.05000
C2     1  0.099200  0.507650  0.743010  1.000000 0.05000
HKLF 0
END
