TITL benzene
REM This file was exported by DSR version 1.5.13-dbexport
REM Name: Benzene, Benzol, C6H6
REM SRC: CCDC UGEDEQ
CELL 0.71073    11.099    9.791   26.324   90.000   90.000   90.000
ZERR    1.00   0.000    0.000    0.000    0.000    0.000    0.000
LATT  -1
SFAC C
UNIT 1 
WGHT  0.1
FVAR  1


C1    1   0.880000   -0.330900   0.267190   11.00   0.04
C2    1   0.786200   -0.377700   0.238080   11.00   0.04
C3    1   0.760600   -0.318400   0.192570   11.00   0.04
C4    1   0.829200   -0.212200   0.175520   11.00   0.04
C5    1   0.923200   -0.164400   0.204000   11.00   0.04
C6    1   0.948800   -0.223200   0.249920   11.00   0.04
HKLF 4
END
