TITL bf4
REM This file was exported by DSR version 1.5.13-dbexport
REM Src: TURBOMOLE V6.0 B-P86/def-SV(P)
REM Name: Tetrafluoroborate, [BF4]-
CELL 0.71073    50.000   50.000   50.000   90.000   90.000   90.000
ZERR    1.00   0.000    0.000    0.000    0.000    0.000    0.000
LATT  -1
SFAC B  F
UNIT 1  1 
WGHT  0.1
FVAR  1


B1    1     0.000000     0.000000     0.000000   11.00   0.04
F1    2     0.016380     0.016380     0.016380   11.00   0.04
F2    2    -0.016380     0.016380    -0.016380   11.00   0.04
F3    2     0.016380    -0.016380    -0.016380   11.00   0.04
F4    2    -0.016380    -0.016380     0.016380   11.00   0.04
HKLF 4
END
