TITL DOCYEB
CELL 0.71073 7.221 15.822 16.582 90 98.718 90
ZERR 4 0.0014 0.003 0.003 0 0.004 0
LATT 1
SYMM 1/2-x,1/2+y,1/2-z
SFAC C H N S Ni
UNIT 80 64 16 8 4
FVAR 1.00
N1      3  0.963000  0.007020  0.661360  1.000000 0.05000
N2      3  0.771900  0.114320  0.559680  1.000000 0.05000
C1      1  1.057800 -0.045020  0.716750  1.000000 0.05000
C2      1  1.067700 -0.131630  0.705450  1.000000 0.05000
C3      1  0.977400 -0.166380  0.633190  1.000000 0.05000
C4      1  0.882200 -0.113040  0.574510  1.000000 0.05000
C5      1  0.877700 -0.026780  0.590600  1.000000 0.05000
C6      1  0.776200  0.034620  0.532150  1.000000 0.05000
C7      1  0.688100  0.011390  0.454480  1.000000 0.05000
C8      1  0.591100  0.072380  0.404530  1.000000 0.05000
C9      1  0.584000  0.154350  0.433810  1.000000 0.05000
C10     1  0.676400  0.172740  0.511330  1.000000 0.05000
HKLF 0
END
