TITL bipyridine
REM This file was exported by DSR version 1.5.13-dbexport
REM Src: CCDC DOCYEB
REM Name: 2,2'-Bipyridine, C10H8N2, bipy
CELL 0.71073     7.221   15.822   16.582   90.000   98.718   90.000
ZERR    1.00   0.000    0.000    0.000    0.000    0.000    0.000
LATT  -1
SFAC N  C
UNIT 1  1 
WGHT  0.1
FVAR  1


N1    1   0.963000   0.007020   0.661360   11.00   0.04
N2    1   0.771900   0.114320   0.559680   11.00   0.04
C1    2   1.057800   -0.045020   0.716750   11.00   0.04
C2    2   1.067700   -0.131630   0.705450   11.00   0.04
C3    2   0.977400   -0.166380   0.633190   11.00   0.04
C4    2   0.882200   -0.113040   0.574510   11.00   0.04
C5    2   0.877700   -0.026780   0.590600   11.00   0.04
C6    2   0.776200   0.034620   0.532150   11.00   0.04
C7    2   0.688100   0.011390   0.454480   11.00   0.04
C8    2   0.591100   0.072380   0.404530   11.00   0.04
C9    2   0.584000   0.154350   0.433810   11.00   0.04
C10    2   0.676400   0.172740   0.511330   11.00   0.04
HKLF 4
END
