TITL ccl4
REM This file was exported by DSR version 1.5.13-dbexport
REM Src: Gaussian 03 B3LYP/6-311++G(d,p)
REM Name: Tetrachloromethane, CCl4
CELL 0.71073    50.000   50.000   50.000   90.000   90.000   90.000
ZERR    1.00   0.000    0.000    0.000    0.000    0.000    0.000
LATT  -1
SFAC C  CL
UNIT 1  1 
WGHT  0.1
FVAR  1


C1    1     0.000001     0.000000    -0.000001   11.00   0.04
Cl1    2    -0.028626    -0.013071    -0.017128   11.00   0.04
Cl2    2     0.029246    -0.018063    -0.010104   11.00   0.04
Cl3    2    -0.004597    -0.003532     0.035353   11.00   0.04
Cl4    2     0.003977     0.034667    -0.008121   11.00   0.04
HKLF 4
END
