TITL ASOMAX
CELL 0.71073 12.0134 7.5999 23.8758 90 103.185 90
ZERR 4 0.0005 0.0003 0.0009 0 0.0006 0
LATT 1
SYMM 1/2-x,1/2+y,1/2-z
SFAC C H N O Cl Br
UNIT 80 68 8 20 8 4
FVAR 1.00
Cl1     5  0.819550  0.924680  0.195900  1.000000 0.05000
Cl2     5  0.587790  0.806550  0.193980  1.000000 0.05000
C1     1  0.680900  0.885600  0.152200  1.000000 0.05000
HKLF 0
END
