TITL ch2cl2
REM This file was exported by DSR version 1.5.13-dbexport
REM Src: CCDC ASOMAX
REM Name: Dichloromethane, CH2Cl2, DCM
CELL 0.71073    12.013    7.600   23.876   90.000  103.185   90.000
ZERR    1.00   0.000    0.000    0.000    0.000    0.000    0.000
LATT  -1
SFAC CL  C
UNIT 1  1 
WGHT  0.1
FVAR  1


Cl1    1   0.819550   0.924680   0.195900   11.00   0.04
Cl2    1   0.587790   0.806550   0.193980   11.00   0.04
C1    2   0.680900   0.885600   0.152200   11.00   0.04
HKLF 4
END
