TITL chcl3
REM This file was exported by DSR version 1.5.13-dbexport
REM Src: Turbomole V6, B3-LYP/def2-TZVPP
REM Name: Trichloromethane, Chloroform, CHCl3
CELL 0.71073    50.000   50.000   50.000   90.000   90.000   90.000
ZERR    1.00   0.000    0.000    0.000    0.000    0.000    0.000
LATT  -1
SFAC C  CL
UNIT 1  1 
WGHT  0.1
FVAR  1


C1    1     0.000000     0.000000    -0.002057   11.00   0.04
CL1    2    -0.017008     0.029459     0.008667   11.00   0.04
CL2    2    -0.017008    -0.029459     0.008667   11.00   0.04
CL3    2     0.034017     0.000000     0.008667   11.00   0.04
HKLF 4
END
