TITL chlorobenz
REM This file was exported by DSR version 1.5.13-dbexport
REM Src: CCDC ICAHEB
REM Name: Chlorobenzene, C6H5Cl
CELL 0.71073    10.881   27.345   15.765   90.000   93.387   90.000
ZERR    1.00   0.000    0.000    0.000    0.000    0.000    0.000
LATT  -1
SFAC CL  C
UNIT 1  1 
WGHT  0.1
FVAR  1


Cl1    1   0.321060   0.863490   0.405680   11.00   0.04
C1    2   0.272400   0.878700   0.301900   11.00   0.04
C2    2   0.250500   0.841400   0.243000   11.00   0.04
C3    2   0.212600   0.853700   0.159300   11.00   0.04
C4    2   0.197300   0.901400   0.136000   11.00   0.04
C5    2   0.219100   0.938600   0.196200   11.00   0.04
C6    2   0.258700   0.927800   0.279600   11.00   0.04
HKLF 4
END
