TITL clo4
REM This file was exported by DSR version 1.5.13-dbexport
REM Name: Perchlorate anion, ClO4-
REM Src: Gaussian 03 B3LYP/6-311++G(d,p) Opt
CELL 0.71073    50.000   50.000   50.000   90.000   90.000   90.000
ZERR    1.00   0.000    0.000    0.000    0.000    0.000    0.000
LATT  -1
SFAC CL  O
UNIT 1  1 
WGHT  0.1
FVAR  1


Cl1    1    -0.000000     0.000000     0.000001   11.00   0.04
O1    2    -0.006996     0.024242    -0.016270   11.00   0.04
O2    2     0.026638     0.004160     0.013210   11.00   0.04
O3    2     0.001371    -0.024036    -0.017936   11.00   0.04
O4    2    -0.021013    -0.004366     0.020994   11.00   0.04
HKLF 4
END
