TITL cp
REM This file was exported by DSR version 1.5.13-dbexport
REM Src: Gaussian 03 B3LYP/6-31+G(d,p) Opt
REM Name: Cyclopentadienyl, [C5H5]-, Cp
CELL 0.71073    50.000   50.000   50.000   90.000   90.000   90.000
ZERR    1.00   0.000    0.000    0.000    0.000    0.000    0.000
LATT  -1
SFAC C
UNIT 1 
WGHT  0.1
FVAR  1


C1    1    -0.013619     0.019919    -0.000000   11.00   0.04
C2    1     0.014736     0.019107     0.000000   11.00   0.04
C3    1     0.022726    -0.008110     0.000000   11.00   0.04
C4    1    -0.000690    -0.024119     0.000000   11.00   0.04
C5    1    -0.023153    -0.006797     0.000000   11.00   0.04
HKLF 4
END
