TITL cpstar
REM This file was exported by DSR version 1.5.13-dbexport
REM Src: Gaussian 03 B3LYP/6-31G(d,p) Opt
REM Name: Pentamethylcyclopentadienyl, [C5Me5]-, Cp*
CELL 0.71073    50.000   50.000   50.000   90.000   90.000   90.000
ZERR    1.00   0.000    0.000    0.000    0.000    0.000    0.000
LATT  -1
SFAC C
UNIT 1 
WGHT  0.1
FVAR  1


C1    1    -0.021212    -0.011429    -0.000058   11.00   0.04
C2    1     0.004320    -0.023735     0.000027   11.00   0.04
C3    1     0.023941    -0.003241    -0.000006   11.00   0.04
C4    1     0.010489     0.021764     0.000089   11.00   0.04
C5    1    -0.017427     0.016666     0.000014   11.00   0.04
C6    1    -0.039204     0.037427     0.000057   11.00   0.04
C7    1     0.023609     0.048858    -0.000280   11.00   0.04
C8    1     0.053761    -0.007412     0.000352   11.00   0.04
C9    1     0.009513    -0.053384    -0.000325   11.00   0.04
C10    1    -0.047775    -0.025542     0.000172   11.00   0.04
HKLF 4
END
