TITL cyclohexane
REM This file was exported by DSR version 1.5.13-dbexport
REM Src: Gaussian 03 B3LYP/6-31+G(d,p) Opt
REM Name: Cyclohexane, C6H12
CELL 0.71073    50.000   50.000   50.000   90.000   90.000   90.000
ZERR    1.00   0.000    0.000    0.000    0.000    0.000    0.000
LATT  -1
SFAC C
UNIT 1 
WGHT  0.1
FVAR  1


C1    1     0.021549     0.019945     0.004590   11.00   0.04
C2    1     0.028054    -0.008685    -0.004592   11.00   0.04
C3    1     0.006503    -0.028625     0.004590   11.00   0.04
C4    1    -0.021549    -0.019945    -0.004590   11.00   0.04
C5    1    -0.028054     0.008685     0.004592   11.00   0.04
C6    1    -0.006503     0.028625    -0.004590   11.00   0.04
HKLF 4
END
