TITL ISIHUN
CELL 0.71073 6.8009 10.8442 11.3699 107.267 92.989 104.811
ZERR 2 0.0007 0.0011 0.0011 0.008 0.008 0.008
LATT 1
SFAC C H N F I
UNIT 24 24 4 8 4
FVAR 1.00
N1      3  0.403400  0.360300  0.267400  1.000000 0.05000
C1      1  0.380900  0.256400  0.144900  1.000000 0.05000
N2      3  0.078300  0.164500  0.238900  1.000000 0.05000
C2      1  0.182200  0.140500  0.127300  1.000000 0.05000
C3      1  0.416300  0.300000  0.366200  1.000000 0.05000
C4      1  0.222900  0.178800  0.347600  1.000000 0.05000
C5      1  0.219400  0.410400  0.273700  1.000000 0.05000
C6      1  0.022900  0.292500  0.259900  1.000000 0.05000
HKLF 0
END
