TITL dabco
REM This file was exported by DSR version 1.5.13-dbexport
REM Src: CCDC ISIHUN
REM Name: 1,4-Diazabicyclo[2.2.2]octane, DABCO
CELL 0.71073     6.801   10.844   11.370  107.267   92.989  104.811
ZERR    1.00   0.000    0.000    0.000    0.000    0.000    0.000
LATT  -1
SFAC N  C
UNIT 1  1 
WGHT  0.1
FVAR  1


N1    1   0.403400   0.360300   0.267400   11.00   0.04
C1    2   0.380900   0.256400   0.144900   11.00   0.04
N2    1   0.078300   0.164500   0.238900   11.00   0.04
C2    2   0.182200   0.140500   0.127300   11.00   0.04
C3    2   0.416300   0.300000   0.366200   11.00   0.04
C4    2   0.222900   0.178800   0.347600   11.00   0.04
C5    2   0.219400   0.410400   0.273700   11.00   0.04
C6    2   0.022900   0.292500   0.259900   11.00   0.04
HKLF 4
END
