TITL diox
REM This file was exported by DSR version 1.5.13-dbexport
REM Src: CCDC OFIZAG
REM Name: Dioxane, C4H8O2
CELL 0.71073     6.847    7.098    8.641  106.676  105.448   90.679
ZERR    1.00   0.000    0.000    0.000    0.000    0.000    0.000
LATT  -1
SFAC O  C
UNIT 1  1 
WGHT  0.1
FVAR  1


O1    1   0.190880   0.039150   0.622930   11.00   0.04
O2    1   -0.190880   -0.039150   0.377070   11.00   0.04
C1    2   0.009080   -0.004220   0.662560   11.00   0.04
C2    2   -0.172280   0.057560   0.551210   11.00   0.04
C3    2   -0.009080   0.004220   0.337440   11.00   0.04
C4    2   0.172280   -0.057560   0.448790   11.00   0.04
HKLF 4
END
