TITL dme-free
REM This file was exported by DSR version 1.5.13-dbexport
REM Name: 1,2-Dimethoxyethane, not coordinated, C4H10O2, DME
REM Src: Turbomole, B3-LYP/def2-TZVPP
REM This DME is not coordinated
CELL 0.71073    50.000   50.000   50.000   90.000   90.000   90.000
ZERR    1.00   0.000    0.000    0.000    0.000    0.000    0.000
LATT  -1
SFAC O  C
UNIT 1  1 
WGHT  0.1
FVAR  1


O1    1    -0.027084    -0.009562    -0.010559   11.00   0.04
O2    1     0.027968    -0.007556     0.009844   11.00   0.04
C1    2    -0.054202    -0.013670    -0.004054   11.00   0.04
C2    2    -0.015355     0.011712     0.003843   11.00   0.04
C3    2     0.014045     0.013510    -0.002804   11.00   0.04
C4    2     0.055341    -0.008277     0.003149   11.00   0.04
HKLF 4
END
