TITL dme
REM This file was exported by DSR version 1.5.13-dbexport
REM SRC: TURBOMOLE, B3-LYP/def2-TZVP
REM Name: 1,2-Dimethoxyethane, coordinated to Na+, C4H10O2, DME
REM This DME was coordinated to Na+
CELL 0.71073    50.000   50.000   50.000   90.000   90.000   90.000
ZERR    1.00   0.000    0.000    0.000    0.000    0.000    0.000
LATT  -1
SFAC O  C
UNIT 1  1 
WGHT  0.1
FVAR  1


O1    1    -0.023080    -0.014960     0.010520   11.00   0.04
O2    1     0.021780     0.018160     0.007960   11.00   0.04
C1    2    -0.049160    -0.026900     0.009040   11.00   0.04
C2    2    -0.013860    -0.005040    -0.014800   11.00   0.04
C3    2     0.015880     0.000120    -0.013580   11.00   0.04
C4    2     0.048080     0.029540     0.006140   11.00   0.04
HKLF 4
END
