TITL dmf
REM This file was exported by DSR version 1.5.13-dbexport
REM Src: Gaussian 03 B3LYP/6-31+G(d,p) Opt
REM Name: N,N-dimethylformamide, C3H7NO, DMF
CELL 0.71073    50.000   50.000   50.000   90.000   90.000   90.000
ZERR    1.00   0.000    0.000    0.000    0.000    0.000    0.000
LATT  -1
SFAC C  O  N
UNIT 1  1  1 
WGHT  0.1
FVAR  1


C1    1    -0.017271    -0.012989    -0.000000   11.00   0.04
O1    2    -0.039125    -0.001937     0.000001   11.00   0.04
N1    3     0.006917    -0.000391    -0.000004   11.00   0.04
C2    1     0.031875    -0.015238     0.000001   11.00   0.04
C3    1     0.008434     0.028673     0.000000   11.00   0.04
HKLF 4
END
