TITL dmpz
REM This file was exported by DSR version 1.5.13-dbexport
REM Name: Dimethylpyrazolato anion, [C5H6N]-, pz*
REM Src: CCDC MADVAQ
CELL 0.71073    10.043   11.550   11.608   62.668   80.643   66.913
ZERR    1.00   0.000    0.000    0.000    0.000    0.000    0.000
LATT  -1
SFAC N  C
UNIT 1  1 
WGHT  0.1
FVAR  1


N1    1   0.861240   0.226040   0.196410   11.00   0.04
N2    1   0.773940   0.317430   0.245840   11.00   0.04
C1    2   0.973060   0.267490   0.142760   11.00   0.04
C2    2   0.960310   0.382480   0.162250   11.00   0.04
C3    2   0.832920   0.411810   0.227210   11.00   0.04
C4    2   1.085740   0.201910   0.068700   11.00   0.04
C5    2   0.763400   0.525190   0.270460   11.00   0.04
HKLF 4
END
