TITL MADVAQ
CELL 0.71073 10.0429 11.5505 11.6084 62.668 80.643 66.913
ZERR 2 0.0015 0.0018 0.0018 0.002 0.003 0.003
LATT 1
SFAC C H B N P Rh
UNIT 36 66 2 12 2 2
FVAR 1.00
N1      4  0.861240  0.226040  0.196410  1.000000 0.05000
N2      4  0.773940  0.317430  0.245840  1.000000 0.05000
C1      1  0.973060  0.267490  0.142760  1.000000 0.05000
C2      1  0.960310  0.382480  0.162250  1.000000 0.05000
C3      1  0.832920  0.411810  0.227210  1.000000 0.05000
C4      1  1.085740  0.201910  0.068700  1.000000 0.05000
C5      1  0.763400  0.525190  0.270460  1.000000 0.05000
HKLF 0
END
