TITL dmso
REM This file was exported by DSR version 1.5.13-dbexport
REM Src: Gaussian 03 MP2/LANL2DZ Opt
REM Name: Dimethyl sulfoxide, DMSO, (CH3)2SO
CELL 0.71073    50.000   50.000   50.000   90.000   90.000   90.000
ZERR    1.00   0.000    0.000    0.000    0.000    0.000    0.000
LATT  -1
SFAC O  S  C
UNIT 1  1  1 
WGHT  0.1
FVAR  1


O1    1    -0.000001     0.031612     0.008305   11.00   0.04
S1    2    -0.000000     0.003571    -0.010482   11.00   0.04
C1    3     0.028538    -0.016189     0.004687   11.00   0.04
C2    3    -0.028538    -0.016190     0.004687   11.00   0.04
HKLF 4
END
