TITL eicosan
REM This file was exported by DSR version 1.6.0-dbexport
REM Name: n-Eicosan, C30H42
REM Src: Nils Trapp
CELL 0.71073     4.132    4.676   25.506   90.389   94.221  104.848
ZERR    1.00   0.000    0.000    0.000    0.000    0.000    0.000
LATT  -1
SFAC C
UNIT 1 
REM  RESIDUE: EICO
WGHT  0.1
FVAR  1
rem Restraints from DSR database:
SADI C1 C2 C2 C3 C3 C4 C4 C5 C5 C6 C6 C7 C7 C8 C8 C9 C9 C10 C10 C11 C11 C12 =
   C12 C13 C13 C14 C14 C15 C15 C16 C16 C17 C17 C18 C18 C19 C19 C20
SADI 0.04 C1 C3 C3 C5 C5 C7 C7 C9 C9 C11 C11 C13 C13 C15 C15 C17 C17 C19 C2 =
   C4 C4 C6 C6 C8 C8 C10 C10 C12 C12 C14 C14 C16 C16 C18 C18 C20
rem Restraints from atom connectivities:
DFIX 1.5322  C20    C19    
DFIX 1.5297  C17    C18    
DFIX 1.5286  C17    C16    
DFIX 1.5257  C18    C19    
DFIX 1.5309  C11    C12    
DFIX 1.5273  C11    C10    
DFIX 1.5309  C16    C15    
DFIX 1.5281  C13    C12    
DFIX 1.5291  C13    C14    
DFIX 1.5281  C9     C8     
DFIX 1.5310  C9     C10    
DFIX 1.5291  C8     C7     
DFIX 1.5271  C14    C15    
DFIX 1.5257  C3     C2     
DFIX 1.5297  C3     C4     
DFIX 1.5322  C2     C1     
DFIX 1.5270  C7     C6     
DFIX 1.5309  C6     C5     
DFIX 1.5286  C5     C4     
DANG 2.5471  C1     C3     
DANG 2.5519  C2     C4     
DANG 2.5528  C3     C5     
DANG 2.5560  C4     C6     
DANG 2.5544  C5     C7     
DANG 2.5526  C6     C8     
DANG 2.5535  C7     C9     
DANG 2.5550  C8     C10    
DANG 2.5537  C9     C11    
DANG 2.5537  C10    C12    
DANG 2.5550  C11    C13    
DANG 2.5535  C12    C14    
DANG 2.5526  C13    C15    
DANG 2.5544  C14    C16    
DANG 2.5560  C15    C17    
DANG 2.5528  C16    C18    
DANG 2.5519  C17    C19    
DANG 2.5471  C18    C20    
rem end of restraints

C1   1     0.79338   0.77045   0.05086   11.0   0.04
C2   1     0.66742   0.56346   0.09549   11.0   0.04
C3   1     0.62432   0.72969   0.14510   11.0   0.04
C4   1     0.50664   0.52567   0.19038   11.0   0.04
C5   1     0.45988   0.69252   0.23983   11.0   0.04
C6   1     0.34577   0.48931   0.28543   11.0   0.04
C7   1     0.29822   0.65600   0.33477   11.0   0.04
C8   1     0.18568   0.45307   0.38038   11.0   0.04
C9   1     0.13655   0.61975   0.42968   11.0   0.04
C10  1     0.02454   0.41662   0.47537   11.0   0.04
C11  1    -0.02454   0.58338   0.52463   11.0   0.04
C12  1    -0.13655   0.38024   0.57032   11.0   0.04
C13  1    -0.18568   0.54693   0.61962   11.0   0.04
C14  1    -0.29822   0.34400   0.66522   11.0   0.04
C15  1    -0.34577   0.51069   0.71457   11.0   0.04
C16  1    -0.45988   0.30748   0.76017   11.0   0.04
C17  1    -0.50664   0.47433   0.80962   11.0   0.04
C18  1    -0.62432   0.27031   0.85490   11.0   0.04
C19  1    -0.66742   0.43654   0.90451   11.0   0.04
C20  1    -0.79338   0.22955   0.94914   11.0   0.04

HKLF 0
END
