TITL ethanol
REM This file was exported by DSR version 1.5.13-dbexport
REM Src: Turbomole, B3LYP/def2-TZVPP
REM Name: Ethanol, C2H6O
CELL 0.71073    50.000   50.000   50.000   90.000   90.000   90.000
ZERR    1.00   0.000    0.000    0.000    0.000    0.000    0.000
LATT  -1
SFAC O  C
UNIT 1  1 
WGHT  0.1
FVAR  1


O1    1    -0.019414    -0.022893     0.000000   11.00   0.04
C1    2    -0.010125     0.004050     0.000000   11.00   0.04
C2    2     0.020060     0.003198     0.000000   11.00   0.04
HKLF 4
END
