TITL ENEXEB
CELL 0.71073 13.6255 14.9316 21.0256 87.865 85.61 65.513
ZERR 2 0.0003 0.0003 0.0004 0.002 0.002 0.002
LATT 1
SFAC C H B N O Rh
UNIT 188 184 4 24 4 4
FVAR 1.00
O1      5  0.911040  0.519650  0.922080  1.000000 0.05000
C1      1  0.996600  0.628800  0.906370  1.000000 0.05000
C2      1  1.011230  0.524800  0.906050  1.000000 0.05000
C3      1  0.917400  0.423120  0.914850  1.000000 0.05000
C4      1  0.816200  0.419000  0.945320  1.000000 0.05000
HKLF 0
END
