TITL ether
REM This file was exported by DSR version 1.5.13-dbexport
REM Src: CCDC ENEXEB
REM Name: Diethyl ether, C4H10O
REM ETH
CELL 0.71073    13.626   14.932   21.026   87.865   85.610   65.513
ZERR    1.00   0.000    0.000    0.000    0.000    0.000    0.000
LATT  -1
SFAC O  C
UNIT 1  1 
WGHT  0.1
FVAR  1


O1    1   0.911040   0.519650   0.922080   11.00   0.04
C1    2   0.996600   0.628800   0.906370   11.00   0.04
C2    2   1.011230   0.524800   0.906050   11.00   0.04
C3    2   0.917400   0.423120   0.914850   11.00   0.04
C4    2   0.816200   0.419000   0.945320   11.00   0.04
HKLF 4
END
