TITL ethylac
REM This file was exported by DSR version 1.5.13-dbexport
REM Src: Daniel Kratzert
REM Name: Ethyl acetate, C4H8O2
CELL 0.71073     5.854    7.970   12.001   79.267   75.914   71.054
ZERR    1.00   0.000    0.000    0.000    0.000    0.000    0.000
LATT  -1
SFAC O  C
UNIT 1  1 
WGHT  0.1
FVAR  1


O1    1   0.58485   0.99408   0.79649   11.00   0.04
O2    1   0.57498   1.01516   0.60906   11.00   0.04
C1    2   0.83056   1.15362   0.66512   11.00   0.04
C2    2   0.65200   1.04813   0.68557   11.00   0.04
C3    2   0.40932   0.89077   0.82575   11.00   0.04
C4    2   0.34314   0.86040   0.95545   11.00   0.04
HKLF 4
END
