TITL HEPTAN02
CELL 0.71073 4.116 4.686 20.348 78.11 81.79 74.25
ZERR 2 0.002 0.003 0.013 0.05 0.05 0.04
LATT 1
SFAC C H
UNIT 14 32
FVAR 1.00
C1      1  1.160300  0.293000  0.427980  1.000000 0.05000
C2      1  1.128400  0.175600  0.365640  1.000000 0.05000
C3      1  1.010900  0.427100  0.306980  1.000000 0.05000
C4      1  0.977700  0.314500  0.243990  1.000000 0.05000
C5      1  0.857800  0.566400  0.185820  1.000000 0.05000
C6      1  0.826000  0.455900  0.122430  1.000000 0.05000
C7      1  0.700000  0.710200  0.065280  1.000000 0.05000
HKLF 0
END
