TITL heptane
REM This file was exported by DSR version 1.5.13-dbexport
REM Src: CCDC 103190
REM Name: n-Heptane, C7H16
CELL 0.71073     4.116    4.686   20.348   78.110   81.790   74.250
ZERR    1.00   0.000    0.000    0.000    0.000    0.000    0.000
LATT  -1
SFAC C
UNIT 1 
WGHT  0.1
FVAR  1


C1    1   1.160300   0.293000   0.427980   11.00   0.04
C2    1   1.128400   0.175600   0.365640   11.00   0.04
C3    1   1.010900   0.427100   0.306980   11.00   0.04
C4    1   0.977700   0.314500   0.243990   11.00   0.04
C5    1   0.857800   0.566400   0.185820   11.00   0.04
C6    1   0.826000   0.455900   0.122430   11.00   0.04
C7    1   0.700000   0.710200   0.065280   11.00   0.04
HKLF 4
END
