TITL hexa
REM This file was exported by DSR version 1.5.13-dbexport
REM Src: Daniel Kratzert
REM Name: Hexamethyldisilazane, C6H19NSi2
CELL 0.71073    21.707    9.276   16.985   90.000  110.554   90.000
ZERR    1.00   0.000    0.000    0.000    0.000    0.000    0.000
LATT  -1
SFAC N  SI  C
UNIT 1  1  1 
WGHT  0.1
FVAR  1


N1    1   0.142398   0.343635   0.192072   11.00   0.04
SI1    2   0.088953   0.293670   0.244601   11.00   0.04
C1    3   0.092822   0.420803   0.331026   11.00   0.04
C2    3   0.110847   0.109215   0.288825   11.00   0.04
C3    3   0.001505   0.299282   0.171842   11.00   0.04
SI2    2   0.136576   0.259830   0.096411   11.00   0.04
C4    3   0.114377   0.397578   0.011501   11.00   0.04
C5    3   0.071922   0.117330   0.061122   11.00   0.04
C6    3   0.214656   0.164146   0.107732   11.00   0.04
HKLF 4
END
