TITL hexane
REM This file was exported by DSR version 1.5.13-dbexport
REM Src: CCDC 103189
REM Name: n-Hexane, C6H14
CELL 0.71073     4.131    4.696    8.539   83.400   87.265   75.172
ZERR    1.00   0.000    0.000    0.000    0.000    0.000    0.000
LATT  -1
SFAC C
UNIT 1 
WGHT  0.1
FVAR  1


C1    1   0.223300   0.731400   0.152630   11.00   0.04
C2    1   0.371900   0.492880   0.283660   11.00   0.04
C3    1   0.427500   0.618430   0.433610   11.00   0.04
C4    1   0.572500   0.381570   0.566390   11.00   0.04
C5    1   0.628100   0.507120   0.716340   11.00   0.04
C6    1   0.776700   0.268600   0.847370   11.00   0.04
HKLF 4
END
