TITL hfipo
REM This file was exported by DSR version 1.5.13-dbexport
REM Src: Turbomole, B3LYP/def2-TZVPP
REM Name: Hexafluoroisopropanol, C3H2F6O, hfip
CELL 0.71073    50.000   50.000   50.000   90.000   90.000   90.000
ZERR    1.00   0.000    0.000    0.000    0.000    0.000    0.000
LATT  -1
SFAC O  C  F
UNIT 1  1  1 
WGHT  0.1
FVAR  1


O1    1     0.031229    -0.019789     0.000000   11.00   0.04
C1    2     0.006084    -0.012405     0.000000   11.00   0.04
C2    2    -0.001565     0.003810     0.025275   11.00   0.04
C3    2    -0.001565     0.003810    -0.025275   11.00   0.04
F1    3     0.003066    -0.010980     0.047314   11.00   0.04
F2    3    -0.027819     0.010979     0.026802   11.00   0.04
F3    3     0.012480     0.026552     0.028215   11.00   0.04
F4    3     0.003066    -0.010980    -0.047314   11.00   0.04
F5    3     0.012480     0.026552    -0.028215   11.00   0.04
F6    3    -0.027819     0.010979    -0.026802   11.00   0.04
HKLF 4
END
