TITL NITFUT
CELL 0.71073 10.2109 18.4364 14.6671 90 104.16 90
ZERR 4 0.0003 0.0004 0.0004 0 0.0010 0
LATT 1
SYMM 1/2-x,1/2+y,1/2-z
SFAC C H N F Ga
UNIT 108 144 8 12 4
FVAR 1.00
C1     1  0.157400  0.239090  0.625130  1.000000 0.05000
C2     1  0.043610  0.264020  0.477420  1.000000 0.05000
C3     1  0.070160  0.192190  0.482340  1.000000 0.05000
N1      3  0.098370  0.291970  0.565760  1.000000 0.05000
N2      3  0.139930  0.177800  0.573840  1.000000 0.05000
HKLF 0
END
