TITL mquinolinol
REM This file was exported by DSR version 1.5.13-dbexport
REM Src: CCDC COLWOQ
REM Name: 2-Methyl-8-quinolinol, C10H9NO
CELL 0.71073     9.585   13.577   18.778   90.000  102.559   90.000
ZERR    1.00   0.000    0.000    0.000    0.000    0.000    0.000
LATT  -1
SFAC O  N  C
UNIT 1  1  1 
WGHT  0.1
FVAR  1


O1    1   0.265370   0.556370   0.238240   11.00   0.04
N1    2   0.193660   0.410350   0.316010   11.00   0.04
C1    3   0.161710   0.574820   0.273060   11.00   0.04
C2    3   0.093110   0.664730   0.270240   11.00   0.04
C3    3   -0.017150   0.679130   0.307890   11.00   0.04
C4    3   -0.059840   0.605350   0.347710   11.00   0.04
C5    3   0.008470   0.512210   0.352120   11.00   0.04
C6    3   0.120040   0.497520   0.314840   11.00   0.04
C7    3   -0.028620   0.431060   0.390980   11.00   0.04
C8    3   0.041790   0.344210   0.390390   11.00   0.04
C9    3   0.154260   0.334900   0.352430   11.00   0.04
C10    3   0.229100   0.237830   0.354460   11.00   0.04
HKLF 4
END
