TITL n-adamantane
REM This file was exported by DSR version 1.5.13-dbexport
REM Name: Adamantane-N, C10H16N
REM Src: Daniel Kratzert
CELL 0.71073    12.343   16.849   12.727   90.000  105.861   90.000
ZERR    1.00   0.000    0.000    0.000    0.000    0.000    0.000
LATT  -1
SFAC N  C
UNIT 1  1 
WGHT  0.1
FVAR  1


N1    1   0.147412   0.183773   0.548368   11.00   0.04
C1    2   0.059113   0.244364   0.510517   11.00   0.04
C2    2   0.108962   0.327902   0.514528   11.00   0.04
C3    2   -0.016787   0.227100   0.395542   11.00   0.04
C4    2   -0.015659   0.241546   0.589857   11.00   0.04
C5    2   -0.110518   0.303143   0.558532   11.00   0.04
C6    2   -0.184176   0.285776   0.442985   11.00   0.04
C7    2   -0.111101   0.289611   0.363042   11.00   0.04
C8    2   -0.059481   0.372009   0.366091   11.00   0.04
C9    2   0.013949   0.389699   0.481391   11.00   0.04
C10    2   -0.058852   0.386127   0.561687   11.00   0.04
HKLF 4
END
