TITL napht
REM This file was exported by DSR version 1.5.13-dbexport
REM Src: CCDC NAPHTA26
REM Name: Naphthalene, C10H8
CELL 0.71073     8.113    5.940    8.649   90.000  124.472   90.000
ZERR    1.00   0.000    0.000    0.000    0.000    0.000    0.000
LATT  -1
SFAC C
UNIT 1 
WGHT  0.1
FVAR  1


C1    1   0.076670   0.251940   -0.075630   11.00   0.04
C2    1   0.013470   0.190770   -0.254470   11.00   0.04
C3    1   -0.082520   -0.019250   -0.328940   11.00   0.04
C4    1   -0.112930   -0.163550   -0.222850   11.00   0.04
C4A    1   -0.048140   -0.105520   -0.037400   11.00   0.04
C5    1   -0.076670   -0.251940   0.075630   11.00   0.04
C6    1   -0.013470   -0.190770   0.254470   11.00   0.04
C7    1   0.082520   0.019250   0.328940   11.00   0.04
C8    1   0.112930   0.163550   0.222850   11.00   0.04
C8A    1   0.048140   0.105520   0.037400   11.00   0.04
HKLF 4
END
