TITL et4n+
REM This file was exported by DSR version 1.5.13-dbexport
REM Src: CCDC ABENRE
REM Name: Tetraethylammonium, C8H20N+, NEt4+, et4N+
REM these FLAT restraints might me removed later:
CELL 0.71073    16.410   13.810   16.910   90.000   90.000   90.000
ZERR    1.00   0.000    0.000    0.000    0.000    0.000    0.000
LATT  -1
SFAC N  C
UNIT 1  1 
WGHT  0.1
FVAR  1


N1    1   0.425700   0.261500   0.002100   11.00   0.04
C1    2   0.452600   0.154300   -0.002600   11.00   0.04
C2    2   0.435500   0.094100   0.073900   11.00   0.04
C3    2   0.333100   0.265000   0.017800   11.00   0.04
C4    2   0.280700   0.211700   -0.041200   11.00   0.04
C5    2   0.448800   0.305400   -0.078300   11.00   0.04
C6    2   0.425700   0.413400   -0.084300   11.00   0.04
C7    2   0.464300   0.310400   0.072100   11.00   0.04
C8    2   0.554900   0.316400   0.069100   11.00   0.04
HKLF 4
END
