TITL GODJEQ
CELL 0.71073 6.5438 9.8983 11.922 99.075 95.975 100.199
ZERR 2 0.0012 0.0018 0.002 0.003 0.003 0.003
LATT 1
SFAC C H N O
UNIT 20 34 14 12
FVAR 1.00
O1      4  0.267910  0.171910  0.119840  1.000000 0.05000
N1      3  0.266300  0.299160  0.125470  1.000000 0.05000
O2      4  0.274000  0.351760  0.037810  1.000000 0.05000
O3      4  0.256100  0.373080  0.219260  1.000000 0.05000
HKLF 0
END
