TITL nitrate
REM This file was exported by DSR version 1.5.13-dbexport
REM Src: CCDC GODJEQ
REM Name: Nitrate anion, [NO3]-
CELL 0.71073     6.544    9.898   11.922   99.075   95.975  100.199
ZERR    1.00   0.000    0.000    0.000    0.000    0.000    0.000
LATT  -1
SFAC N  O
UNIT 1  1 
WGHT  0.1
FVAR  1


N1    1   0.266300   0.299160   0.125470   11.00   0.04
O1    2   0.267910   0.171910   0.119840   11.00   0.04
O2    2   0.274000   0.351760   0.037810   11.00   0.04
O3    2   0.256100   0.373080   0.219260   11.00   0.04
HKLF 4
END
