TITL QQQFAY01
CELL 0.71073 4.118 4.674 24.693 86.27 87.8 74.52
ZERR 2 0.0012 0.002 0.009 0.03 0.03 0.03
LATT 1
SFAC C H
UNIT 18 40
FVAR 1.00
C1      1  0.621800  0.718400  0.057990  1.000000 0.05000
C2      1  0.552600  0.536300  0.108040  1.000000 0.05000
C3      1  0.405900  0.726000  0.155410  1.000000 0.05000
C4      1  0.332500  0.548500  0.205990  1.000000 0.05000
C5      1  0.186600  0.740500  0.253100  1.000000 0.05000
C6      1  0.113700  0.564100  0.303890  1.000000 0.05000
C7      1 -0.035300  0.757000  0.350670  1.000000 0.05000
C8      1 -0.106700  0.581700  0.401510  1.000000 0.05000
C9      1 -0.262100  0.777900  0.447520  1.000000 0.05000
HKLF 0
END
