TITL nonane
REM This file was exported by DSR version 1.5.13-dbexport
REM Name: n-Nonane, C8H18
REM Src: CCDC 103192
CELL 0.71073     4.118    4.674   24.693   86.270   87.800   74.520
ZERR    1.00   0.000    0.000    0.000    0.000    0.000    0.000
LATT  -1
SFAC C
UNIT 1 
WGHT  0.1
FVAR  1


C1    1   0.621800   0.718400   0.057990   11.00   0.04
C2    1   0.552600   0.536300   0.108040   11.00   0.04
C3    1   0.405900   0.726000   0.155410   11.00   0.04
C4    1   0.332500   0.548500   0.205990   11.00   0.04
C5    1   0.186600   0.740500   0.253100   11.00   0.04
C6    1   0.113700   0.564100   0.303890   11.00   0.04
C7    1   -0.035300   0.757000   0.350670   11.00   0.04
C8    1   -0.106700   0.581700   0.401510   11.00   0.04
C9    1   -0.262100   0.777900   0.447520   11.00   0.04
HKLF 4
END
