TITL oc(cf3)3
REM This file was exported by DSR version 1.5.13-dbexport
REM Name: Nonafluoro-tert-butoxy, [(CF3)3CO]-
REM Src: TURBOMOLE V6.0 B-P86/def-SV(P)
CELL 0.71073    50.000   50.000   50.000   90.000   90.000   90.000
ZERR    1.00   0.000    0.000    0.000    0.000    0.000    0.000
LATT  -1
SFAC O  C  F
UNIT 1  1  1 
WGHT  0.1
FVAR  1


O1    1    -0.000291     0.033318     0.002193   11.00   0.04
C1    2    -0.000029     0.005363     0.001270   11.00   0.04
C2    2    -0.022668    -0.004649    -0.018146   11.00   0.04
F1    3    -0.046932    -0.002255    -0.006909   11.00   0.04
F2    3    -0.019251    -0.030133    -0.025816   11.00   0.04
F3    3    -0.022453     0.011006    -0.040353   11.00   0.04
C3    2     0.028113    -0.004636    -0.008626   11.00   0.04
F4    3     0.047706     0.008468     0.004112   11.00   0.04
F5    3     0.030651     0.000769    -0.035108   11.00   0.04
F6    3     0.031567    -0.031031    -0.005007   11.00   0.04
C4    2    -0.005563    -0.004321     0.030559   11.00   0.04
F7    3     0.016120    -0.000752     0.046086   11.00   0.04
F8    3    -0.011782    -0.030572     0.030692   11.00   0.04
F9    3    -0.025865     0.009393     0.041347   11.00   0.04
HKLF 4
END
