TITL och2cf3
REM This file was exported by DSR version 1.5.13-dbexport
REM Src: TURBOMOLE V6.0 B-P86/def-SV(P)
REM Name: Trifluoroethanol, OCH2CF3-
CELL 0.71073    50.000   50.000   50.000   90.000   90.000   90.000
ZERR    1.00   0.000    0.000    0.000    0.000    0.000    0.000
LATT  -1
SFAC O  C  F
UNIT 1  1  1 
WGHT  0.1
FVAR  1


O1    1    -0.015125     0.033042    -0.006696   11.00   0.04
C1    2    -0.042101     0.038242    -0.008445   11.00   0.04
C2    2    -0.051767     0.039837    -0.037433   11.00   0.04
F1    3    -0.039143     0.059305    -0.051562   11.00   0.04
F2    3    -0.078528     0.045634    -0.038243   11.00   0.04
F3    3    -0.048260     0.016631    -0.050919   11.00   0.04
HKLF 4
END
