TITL 'OCTANE01'@ octane-ccdc.res
CELL  0.71073 4.1947 4.7518 10.998 85.11 83.77 74.26
ZERR 2 0.0009 0.0012 0.003 0.02 0.02 0.02
SYMM  -x, -y, -z
SFAC C H 
UNIT 8 18
REM ######################################################
REM This file exported by ShelXle is for information or 
REM visualiztion purposes only. You may run into trouble 
REM if you try to refine it against data.
REM DISABLE_REFINE
REM ######################################################
FVAR 1.00 1 
C3    1   0.640600   0.343900   0.661230   1.00000   0.05000
C4    1   0.516400   0.567900   0.558310   1.00000   0.05000
C5    1   0.483600   0.432100   0.441690   1.00000   0.05000
C6    1   0.359400   0.656100   0.338770   1.00000   0.05000
C7    1   0.326600   0.520800   0.222240   1.00000   0.05000
C8    1   0.199100   0.746600   0.120650   1.00000   0.05000
C1    1   0.800900   0.253400   0.879350   1.00000   0.05000
C2    1   0.673400   0.479200   0.777760   1.00000   0.05000
EQIV $1  1-x, 1-y, 1-z
BIND C2 C1
BIND C3 C2
BIND C4 C3
BIND H1 C1
BIND H2 C1
BIND H3 C1
BIND H4 C2
BIND H5 C2
BIND H6 C3
BIND H7 C3
BIND H8 C4
BIND H9 C4
BIND_$1 C2 C1
BIND_$1 C3 C2
BIND_$1 C4 C4
BIND_$1 C4 C3
BIND_$1 H1 C1
BIND_$1 H2 C1
BIND_$1 H3 C1
BIND_$1 H4 C2
BIND_$1 H5 C2
BIND_$1 H6 C3
BIND_$1 H7 C3
BIND_$1 H8 C4
BIND_$1 H9 C4
HKLF 0 !don't refine this
END
