TITL octane
REM This file was exported by DSR version 1.5.13-dbexport
REM Name: n-Octane, C8H18
REM Src: CCDC 103191
CELL 0.71073     4.195    4.752   10.998   85.110   83.770   74.260
ZERR    1.00   0.000    0.000    0.000    0.000    0.000    0.000
LATT  -1
SFAC C
UNIT 1 
WGHT  0.1
FVAR  1


C1    1   0.800900   0.253400   0.879350   11.00   0.04
C2    1   0.673400   0.479200   0.777760   11.00   0.04
C3    1   0.640600   0.343900   0.661230   11.00   0.04
C4    1   0.516400   0.567900   0.558310   11.00   0.04
C5    1   0.483600   0.432100   0.441690   11.00   0.04
C6    1   0.359400   0.656100   0.338770   11.00   0.04
C7    1   0.326600   0.520800   0.222240   11.00   0.04
C8    1   0.199100   0.746600   0.120650   11.00   0.04
HKLF 4
END
