TITL pentane
REM This file was exported by DSR version 1.5.13-dbexport
REM Src: CCDC 102188
REM Name: n-Pentane, C5H10
CELL 0.71073     4.136    9.025   14.816   90.000   90.000   90.000
ZERR    1.00   0.000    0.000    0.000    0.000    0.000    0.000
LATT  -1
SFAC C
UNIT 1 
WGHT  0.1
FVAR  1


C1    1   0.196000   0.368860   0.087800   11.00   0.04
C2    1   0.094100   0.461660   0.168320   11.00   0.04
C3    1   0.000000   0.369650   0.250000   11.00   0.04
C4    1   -0.094100   0.461660   0.331680   11.00   0.04
C5    1   -0.196000   0.368860   0.412200   11.00   0.04
HKLF 4
END
