TITL pentafl
REM This file was exported by DSR version 1.5.13-dbexport
REM Src: CCDC CIMYOO
REM Name: Pentafluorophenyl, -C6F5
CELL 0.71073    12.359   13.280   14.025   92.336  109.020  112.483
ZERR    1.00   0.000    0.000    0.000    0.000    0.000    0.000
LATT  -1
SFAC F  C
UNIT 1  1 
WGHT  0.1
FVAR  1


F1    1   0.232420   0.519680   0.127970   11.00   0.04
F2    1   0.281870   0.635370   0.309140   11.00   0.04
F3    1   0.384630   0.861310   0.343710   11.00   0.04
F4    1   0.435290   0.969060   0.192870   11.00   0.04
F5    1   0.398730   0.855870   0.014490   11.00   0.04
C1    2   0.312750   0.682410   0.063350   11.00   0.04
C2    2   0.286300   0.631100   0.142270   11.00   0.04
C3    2   0.309830   0.689190   0.236140   11.00   0.04
C4    2   0.360510   0.803350   0.253230   11.00   0.04
C5    2   0.387970   0.857620   0.177000   11.00   0.04
C6    2   0.365880   0.798100   0.084840   11.00   0.04
HKLF 4
END
