TITL pf6
REM This file was exported by DSR version 1.5.13-dbexport
REM Name: Hexafluorophosphate, PF6
REM Src: Gaussian 03 B3LYP/6-311+G(d,p) Opt
CELL 0.71073    50.000   50.000   50.000   90.000   90.000   90.000
ZERR    1.00   0.000    0.000    0.000    0.000    0.000    0.000
LATT  -1
SFAC P  F
UNIT 1  1 
WGHT  0.1
FVAR  1


P1    1     0.000001     0.000000    -0.000001   11.00   0.04
F1    2    -0.031443     0.009496     0.002207   11.00   0.04
F2    2    -0.002558    -0.000840    -0.032804   11.00   0.04
F3    2     0.031444    -0.009497    -0.002207   11.00   0.04
F4    2     0.002556     0.000841     0.032806   11.00   0.04
F5    2     0.009408     0.031510    -0.001540   11.00   0.04
F6    2    -0.009409    -0.031508     0.001540   11.00   0.04
HKLF 4
END
