TITL pfanion
REM This file was exported by DSR version 1.5.13-dbexport
REM Src: Measurement Przemek Malinowski
REM Name: PF-Anion, [Al{OC(CF3)3}4]-
CELL 0.71073     9.462   13.693   13.684   89.907   90.021   89.967
ZERR    1.00   0.000    0.000    0.000    0.000    0.000    0.000
LATT  -1
SFAC AL  O  C  F
UNIT 1  1  1  1 
WGHT  0.1
FVAR  1


Al1    1   1.00003   -0.24999   0.24991   11.00   0.04
O1    2   0.89982   -0.16394   0.30981   11.00   0.04
C1    3   0.82344   -0.08068   0.30489   11.00   0.04
C2    3   0.70803   -0.08678   0.22317   11.00   0.04
F1    4   0.76039   -0.12578   0.14352   11.00   0.04
F2    4   0.65458   -0.00077   0.19964   11.00   0.04
F3    4   0.60136   -0.14420   0.25378   11.00   0.04
C3    3   0.75104   -0.06441   0.40583   11.00   0.04
F4    4   0.84220   -0.03373   0.47124   11.00   0.04
F5    4   0.64763   0.00199   0.40068   11.00   0.04
F6    4   0.69647   -0.14768   0.43829   11.00   0.04
C4    3   0.92076   0.00761   0.28224   11.00   0.04
F7    4   1.03912   0.00061   0.33222   11.00   0.04
F8    4   0.95606   0.00961   0.18765   11.00   0.04
F9    4   0.86098   0.09309   0.30265   11.00   0.04
O2    2   1.10084   -0.19017   0.16392   11.00   0.04
C5    3   1.17710   -0.19489   0.08059   11.00   0.04
C6    3   1.24979   -0.09469   0.06457   11.00   0.04
F10    4   1.35267   -0.09964   -0.00219   11.00   0.04
F11    4   1.15822   -0.02854   0.03388   11.00   0.04
F12    4   1.30359   -0.06129   0.14775   11.00   0.04
C7    3   1.07893   -0.21746   -0.00736   11.00   0.04
F13    4   1.04406   -0.31273   -0.00996   11.00   0.04
F14    4   1.13910   -0.19743   -0.09343   11.00   0.04
F15    4   0.96103   -0.16779   -0.00123   11.00   0.04
C8    3   1.29159   -0.27688   0.08693   11.00   0.04
F16    4   1.34556   -0.30038   0.00011   11.00   0.04
F17    4   1.39870   -0.24629   0.14414   11.00   0.04
F18    4   1.23917   -0.35636   0.12591   11.00   0.04
O3    2   0.89912   -0.33599   0.18953   11.00   0.04
C9    3   0.82350   -0.41942   0.19462   11.00   0.04
C10    3   0.75035   -0.43562   0.09451   11.00   0.04
F19    4   0.84106   -0.46611   0.02811   11.00   0.04
F20    4   0.69563   -0.35186   0.06198   11.00   0.04
F21    4   0.64682   -0.50132   0.09984   11.00   0.04
C11    3   0.92081   -0.50768   0.21770   11.00   0.04
F22    4   1.03851   -0.50096   0.16689   11.00   0.04
F23    4   0.95612   -0.51042   0.31195   11.00   0.04
F24    4   0.86030   -0.59299   0.19724   11.00   0.04
C12    3   0.70780   -0.41321   0.27720   11.00   0.04
F25    4   0.65440   -0.49974   0.29975   11.00   0.04
F26    4   0.60165   -0.35545   0.24678   11.00   0.04
F27    4   0.76048   -0.37476   0.35585   11.00   0.04
O4    2   1.10011   -0.31016   0.33563   11.00   0.04
C14    3   1.29276   -0.22284   0.41335   11.00   0.04
C13    3   1.17691   -0.30561   0.41945   11.00   0.04
F28    4   1.23934   -0.14395   0.37421   11.00   0.04
F29    4   1.39836   -0.25309   0.35540   11.00   0.04
F30    4   1.34619   -0.20046   0.49926   11.00   0.04
C15    3   1.07947   -0.28250   0.50778   11.00   0.04
F31    4   0.96136   -0.33238   0.50142   11.00   0.04
F32    4   1.04419   -0.18827   0.51000   11.00   0.04
F33    4   1.13950   -0.30272   0.59288   11.00   0.04
C16    3   1.24936   -0.40511   0.43566   11.00   0.04
F34    4   1.35264   -0.40040   0.50181   11.00   0.04
F35    4   1.15795   -0.47180   0.46603   11.00   0.04
F36    4   1.30411   -0.43804   0.35185   11.00   0.04
HKLF 4
END
