TITL propane
REM This file was exported by DSR version 1.5.13-dbexport
REM Name: Propane, C3H8
REM Src: CCDC 103186
CELL 0.71073     4.148   12.612    6.977   90.000   91.280   90.000
ZERR    1.00   0.000    0.000    0.000    0.000    0.000    0.000
LATT  -1
SFAC C
UNIT 1 
WGHT  0.1
FVAR  1


C1    1   0.217300   0.948250   0.219960   11.00   0.04
C2    1   0.308500   0.875410   0.388090   11.00   0.04
C3    1   0.230600   0.759140   0.344940   11.00   0.04
HKLF 4
END
