TITL pyrazole
REM This file was exported by DSR version 1.5.13-dbexport
REM Src: CCDC CUJWEK
REM Name: Pyrazole, C3H4N2
CELL 0.71073    11.157   14.336   14.188   90.000  107.794   90.000
ZERR    1.00   0.000    0.000    0.000    0.000    0.000    0.000
LATT  -1
SFAC N  C
UNIT 1  1 
WGHT  0.1
FVAR  1


N1    1   -0.087770   0.306980   0.867620   11.00   0.04
N2    1   0.019890   0.258430   0.911650   11.00   0.04
C1    2   -0.097100   0.379710   0.924960   11.00   0.04
C2    2   0.005900   0.379150   1.008430   11.00   0.04
C3    2   0.076300   0.302240   0.996690   11.00   0.04
HKLF 4
END
