TITL CUJWEK
CELL 0.71073 11.157 14.336 14.188 90 107.794 90
ZERR 4 0.003 0.004 0.004 0 0.004 0
LATT 1
SYMM 1/2-x,1/2+y,1/2-z
SFAC C H B N P Ru
UNIT 72 136 4 24 4 4
FVAR 1.00
N2      4  0.019890  0.258430  0.911650  1.000000 0.05000
C2      1  0.005900  0.379150  1.008430  1.000000 0.05000
N1      4 -0.087770  0.306980  0.867620  1.000000 0.05000
C1      1 -0.097100  0.379710  0.924960  1.000000 0.05000
C3      1  0.076300  0.302240  0.996690  1.000000 0.05000
HKLF 0
END
