TITL pyrene
REM This file was exported by DSR version 1.5.13-dbexport
REM Src: TURBOMOLE BP86/SVP
REM Name: Pyrene, C16H10
CELL 0.71073    50.000   50.000   50.000   90.000   90.000   90.000
ZERR    1.00   0.000    0.000    0.000    0.000    0.000    0.000
LATT  -1
SFAC C
UNIT 1 
WGHT  0.1
FVAR  1


C1    1   0.024373   -0.057045   -0.000000   11.00   0.04
C2    1   -0.000000   -0.070962   0.000000   11.00   0.04
C3    1   -0.024373   -0.057045   0.000000   11.00   0.04
C3A    1   -0.024903   -0.028751   0.000000   11.00   0.04
C4    1   -0.049528   -0.013755   -0.000000   11.00   0.04
C5    1   -0.049528   0.013755   -0.000000   11.00   0.04
C5A    1   -0.024903   0.028751   -0.000000   11.00   0.04
C6    1   -0.024373   0.057045   -0.000000   11.00   0.04
C7    1   -0.000000   0.070962   -0.000000   11.00   0.04
C8    1   0.024373   0.057045   0.000000   11.00   0.04
C8A    1   0.024903   0.028751   0.000000   11.00   0.04
C9    1   0.049528   0.013755   0.000000   11.00   0.04
C10    1   0.049528   -0.013755   -0.000000   11.00   0.04
C10A    1   0.024903   -0.028751   -0.000000   11.00   0.04
C10B    1   0.000000   -0.014324   0.000000   11.00   0.04
C10C    1   0.000000   0.014324   0.000000   11.00   0.04
HKLF 4
END
