TITL EPEXED
CELL 0.71073 15.039 12.809 14.218 90 90 90
ZERR 4 0.007 0.006 0.006 0 0 0
LATT -1
SYMM -x,-y,1/2+z
SYMM 1/2+x,1/2-y,z
SYMM 1/2-x,1/2+y,1/2+z
SFAC C H N O
UNIT 128 104 32 8
FVAR 1.00
N1      3  0.125940  0.725600  0.985470  1.000000 0.05000
C1      1  0.110960  0.633200  0.946190  1.000000 0.05000
C2      1  0.105800  0.616000  0.850650  1.000000 0.05000
C3      1  0.117900  0.698900  0.791270  1.000000 0.05000
C4      1  0.132850  0.795200  0.829330  1.000000 0.05000
C5      1  0.136070  0.805400  0.926080  1.000000 0.05000
HKLF 0
END
