TITL pyridine
REM This file was exported by DSR version 1.5.13-dbexport
REM Name: Pyridine, C5H5N
REM Src: EPEXED
CELL 0.71073    15.039   12.809   14.218   90.000   90.000   90.000
ZERR    1.00   0.000    0.000    0.000    0.000    0.000    0.000
LATT  -1
SFAC N  C
UNIT 1  1 
WGHT  0.1
FVAR  1


N1    1   0.125940   0.725600   0.985470   11.00   0.04
C1    2   0.110960   0.633200   0.946190   11.00   0.04
C2    2   0.105800   0.616000   0.850650   11.00   0.04
C3    2   0.117900   0.698900   0.791270   11.00   0.04
C4    2   0.132850   0.795200   0.829330   11.00   0.04
C5    2   0.136070   0.805400   0.926080   11.00   0.04
HKLF 4
END
