TITL REHFIU
CELL 0.71073 7.3823 7.8262 13.9272 79.062 76.801 78.81
ZERR 2 0.0002 0.0002 0.0003 0.0010 0.0010 0.0010
LATT 1
SFAC C H N
UNIT 20 20 2
FVAR 1.00
N1      3  0.660950  0.951270  0.122160  1.000000 0.05000
C1      1  0.646700  1.142100  0.242730  1.000000 0.05000
C2      1  0.696340  1.101930  0.138630  1.000000 0.05000
C3      1  0.780000  1.218380  0.057740  1.000000 0.05000
C4      1  0.819810  1.177260 -0.036750  1.000000 0.05000
C5      1  0.782870  1.015880 -0.053830  1.000000 0.05000
C6      1  0.820580  0.963530 -0.149180  1.000000 0.05000
C7      1  0.785000  0.803600 -0.159460  1.000000 0.05000
C8      1  0.708400  0.688400 -0.075160  1.000000 0.05000
C9      1  0.666660  0.735710  0.018400  1.000000 0.05000
C10     1  0.703750  0.899840  0.029400  1.000000 0.05000
HKLF 0
END
