TITL quinaldine
REM This file was exported by DSR version 1.5.13-dbexport
REM Src: CCDC REHFIU
REM Name: Quinaldine, C10H9N
CELL 0.71073     7.382    7.826   13.927   79.062   76.801   78.810
ZERR    1.00   0.000    0.000    0.000    0.000    0.000    0.000
LATT  -1
SFAC N  C
UNIT 1  1 
WGHT  0.1
FVAR  1


N1    1   0.660950   0.951270   0.122160   11.00   0.04
C1    2   0.646700   1.142100   0.242730   11.00   0.04
C2    2   0.696340   1.101930   0.138630   11.00   0.04
C3    2   0.780000   1.218380   0.057740   11.00   0.04
C4    2   0.819810   1.177260   -0.036750   11.00   0.04
C5    2   0.782870   1.015880   -0.053830   11.00   0.04
C6    2   0.820580   0.963530   -0.149180   11.00   0.04
C7    2   0.785000   0.803600   -0.159460   11.00   0.04
C8    2   0.708400   0.688400   -0.075160   11.00   0.04
C9    2   0.666660   0.735710   0.018400   11.00   0.04
C10    2   0.703750   0.899840   0.029400   11.00   0.04
HKLF 4
END
