TITL quinolinol
REM This file was exported by DSR version 1.5.13-dbexport
REM Src: CCDC HXQUIN13
REM Name: 8-Hydroxyquinoline, C9H7NO
CELL 0.71073    28.564   24.934    3.778   90.000   90.000   90.000
ZERR    1.00   0.000    0.000    0.000    0.000    0.000    0.000
LATT  -1
SFAC O  N  C
UNIT 1  1  1 
WGHT  0.1
FVAR  1


O1    1   0.532600   0.066680   0.528000   11.00   0.04
N1    2   0.449700   0.033060   0.220200   11.00   0.04
C1    3   0.410410   0.018410   0.063200   11.00   0.04
C2    3   0.373800   0.054130   -0.020400   11.00   0.04
C3    3   0.378790   0.107350   0.061700   11.00   0.04
C4    3   0.420470   0.125270   0.225400   11.00   0.04
C5    3   0.428300   0.179510   0.321400   11.00   0.04
C6    3   0.469280   0.193660   0.484100   11.00   0.04
C7    3   0.504460   0.155390   0.553700   11.00   0.04
C8    3   0.498140   0.102470   0.460800   11.00   0.04
C9    3   0.455380   0.086120   0.297900   11.00   0.04
HKLF 4
END
