TITL supersilyle
REM This file was exported by DSR version 1.5.13-dbexport
REM Name: Tris(trimethylsilyl)silane, [(CH3)3Si]3Si, Supersilyle
REM Src: CCDC CEYMID
CELL 0.71073    10.130   17.035   27.695   90.000  109.020   90.000
ZERR    1.00   0.000    0.000    0.000    0.000    0.000    0.000
LATT  -1
SFAC SI  O  C
UNIT 1  1  1 
WGHT  0.1
FVAR  1


Si1    1   0.499980   0.937620   0.866250   11.00   0.04
Si2    1   0.803660   0.958810   0.814020   11.00   0.04
Si3    1   0.500160   0.817460   0.749120   11.00   0.04
Si4    1   0.644260   0.868600   0.828450   11.00   0.04
O1    2   0.733080   0.802570   0.872160   11.00   0.04
C1    3   0.420800   0.867310   0.901230   11.00   0.04
C2    3   0.603900   1.012600   0.912580   11.00   0.04
C3    3   0.353800   0.989600   0.816870   11.00   0.04
C4    3   0.943500   0.982090   0.875480   11.00   0.04
C5    3   0.711700   1.052070   0.786890   11.00   0.04
C6    3   0.891800   0.918930   0.768910   11.00   0.04
C7    3   0.455000   0.902150   0.703630   11.00   0.04
C8    3   0.580900   0.741030   0.718230   11.00   0.04
C9    3   0.337300   0.772640   0.755910   11.00   0.04
HKLF 4
END
