TITL DIRWEI
CELL 0.71073 9.4917 26.477 16.661 90 91.346 90
ZERR 2 0.0017 0.005 0.003 0 0.002 0
LATT -1
SYMM -x,1/2+y,-z
SFAC C H N O
UNIT 170 200 16 46
FVAR 1.00
O1      4  0.041100  0.624300  0.275050  1.000000 0.05000
C1      1  0.108100  0.654940  0.211600  1.000000 0.05000
C2      1  0.121800  0.616810  0.143700  1.000000 0.05000
C3      1  0.251300  0.674840  0.238400  1.000000 0.05000
C4      1  0.006700  0.697110  0.187500  1.000000 0.05000
HKLF 0
END
