TITL tbu-n
REM This file was exported by DSR version 1.5.13-dbexport
REM Src: Gaussian 03 B3LYP/6-31G(d,p) Opt
REM Name: Tert-butyl-N
CELL 0.71073    50.000   50.000   50.000   90.000   90.000   90.000
ZERR    1.00   0.000    0.000    0.000    0.000    0.000    0.000
LATT  -1
SFAC C  N
UNIT 1  1 
WGHT  0.1
FVAR  1


C1    1     0.012200    -0.000001    -0.000001   11.00   0.04
C2    1     0.025996     0.024865    -0.011965   11.00   0.04
C3    1     0.026010    -0.024836    -0.012013   11.00   0.04
C4    1     0.016078    -0.000028     0.030694   11.00   0.04
N1    2    -0.016480    -0.000000    -0.008313   11.00   0.04
HKLF 4
END
