TITL tbu-c
REM This file was exported by DSR version 1.5.13-dbexport
REM Src: Gaussian 03 B3LYP/6-311G(d,p) Opt
REM Name: Tert-butyl-C
REM C-tBu without H atoms
CELL 0.71073    50.000   50.000   50.000   90.000   90.000   90.000
ZERR    1.00   0.000    0.000    0.000    0.000    0.000    0.000
LATT  -1
SFAC C
UNIT 1 
WGHT  0.1
FVAR  1


C1    1     0.001571     0.000574    -0.000000   11.00   0.04
C2    1    -0.029222     0.000109     0.000000   11.00   0.04
C3    1    -0.041385     0.028402     0.000000   11.00   0.04
C4    1    -0.039296    -0.014661     0.025235   11.00   0.04
C5    1    -0.039296    -0.014660    -0.025235   11.00   0.04
HKLF 4
END
