TITL tbu-o
REM This file was exported by DSR version 1.5.13-dbexport
REM Src: CCDC DIRWEI
REM Name: Tert-butanol (or tert-butoxy)
CELL 0.71073     9.492   26.477   16.661   90.000   91.346   90.000
ZERR    1.00   0.000    0.000    0.000    0.000    0.000    0.000
LATT  -1
SFAC O  C
UNIT 1  1 
WGHT  0.1
FVAR  1


O1    1   0.041100   0.624300   0.275050   11.00   0.04
C1    2   0.108100   0.654940   0.211600   11.00   0.04
C2    2   0.121800   0.616810   0.143700   11.00   0.04
C3    2   0.251300   0.674840   0.238400   11.00   0.04
C4    2   0.006700   0.697110   0.187500   11.00   0.04
HKLF 4
END
