TITL tfa
REM This file was exported by DSR version 1.5.13-dbexport
REM Name: Trifluoroacetic acid, C2H1F3O2, TFA
REM Src: CCDC AMTFAC01
CELL 0.71073     4.755    8.075   12.567   90.000  100.885   90.000
ZERR    1.00   0.000    0.000    0.000    0.000    0.000    0.000
LATT  -1
SFAC F  O  C
UNIT 1  1  1 
WGHT  0.1
FVAR  1


F1    1   0.673490   0.518550   0.156850   11.00   0.04
F2    1   0.262950   0.421390   0.079490   11.00   0.04
F3    1   0.444620   0.353760   0.244190   11.00   0.04
O1    2   0.596440   0.197870   0.009240   11.00   0.04
O2    2   0.860010   0.174920   0.176940   11.00   0.04
C1    3   0.668670   0.235820   0.106640   11.00   0.04
C2    3   0.507410   0.383120   0.146240   11.00   0.04
HKLF 4
END
