TITL thf
REM This file was exported by DSR version 1.5.13-dbexport
REM Src: Gaussian 03 B3LYP/6-311++G(d,p) Opt
REM Name: Tetrahydrofurane, thf, C4H8O
CELL 0.71073    50.000   50.000   50.000   90.000   90.000   90.000
ZERR    1.00   0.000    0.000    0.000    0.000    0.000    0.000
LATT  -1
SFAC O  C
UNIT 1  1 
WGHT  0.1
FVAR  1


O1    1    -0.000000    -0.025037    -0.000000   11.00   0.04
C1    2    -0.023396    -0.008579    -0.002616   11.00   0.04
C2    2    -0.014683     0.019918     0.004501   11.00   0.04
C3    2     0.014683     0.019918    -0.004501   11.00   0.04
C4    2     0.023396    -0.008579     0.002617   11.00   0.04
HKLF 4
END
