TITL tip
REM This file was exported by DSR version 1.5.13-dbexport
REM Name: Triisopropylphenyl, TIP
REM Src: Turbomole, B3LYP/def2-TZVPP
CELL 0.71073    50.000   50.000   50.000   90.000   90.000   90.000
ZERR    1.00   0.000    0.000    0.000    0.000    0.000    0.000
LATT  -1
SFAC C
UNIT 1 
WGHT  0.1
FVAR  1


C1    1     0.022100    -0.023290     0.000000   11.00   0.04
C2    1    -0.004240    -0.032386     0.000000   11.00   0.04
C3    1    -0.024714    -0.013406     0.000000   11.00   0.04
C4    1    -0.019342     0.013944     0.000000   11.00   0.04
C5    1     0.007312     0.022264     0.000000   11.00   0.04
C6    1     0.028308     0.003928     0.000000   11.00   0.04
C7    1     0.057320     0.013032     0.000000   11.00   0.04
C8    1     0.064430     0.028920     0.025322   11.00   0.04
C9    1     0.064430     0.028920    -0.025322   11.00   0.04
C10    1    -0.010234    -0.062190     0.000000   11.00   0.04
C11    1    -0.025292    -0.070926     0.025320   11.00   0.04
C12    1    -0.025292    -0.070926    -0.025320   11.00   0.04
C13    1    -0.042162     0.034044     0.000000   11.00   0.04
C14    1    -0.042212     0.051452     0.025322   11.00   0.04
C15    1    -0.042212     0.051452    -0.025322   11.00   0.04
HKLF 4
END
