TITL CESLUJ
CELL 0.71073 11.246 14.1233 27.1842 90 100.079 90
ZERR 4 0.0003 0.0004 0.0008 0 0.0010 0
LATT 1
SYMM 1/2-x,1/2+y,1/2-z
SFAC C H
UNIT 28 32
FVAR 1.00
C5      1  0.415480  0.739510  0.355590  1.000000 0.05000
C4      1  0.297580  0.713550  0.358250  1.000000 0.05000
C3      1  0.277060  0.638780  0.388210  1.000000 0.05000
C2      1  0.371740  0.588160  0.416130  1.000000 0.05000
C1      1  0.348100  0.506190  0.448510  1.000000 0.05000
C6      1  0.510680  0.690330  0.383120  1.000000 0.05000
C7      1  0.489380  0.615360  0.412970  1.000000 0.05000
HKLF 0
END
