TITL toluene
REM This file was exported by DSR version 1.5.13-dbexport
REM Name: Toluene, C7H8
REM Source: CCDC CESLUJ
CELL 0.71073    11.246   14.123   27.184   90.000  100.079   90.000
ZERR    1.00   0.000    0.000    0.000    0.000    0.000    0.000
LATT  -1
SFAC C
UNIT 1 
WGHT  0.1
FVAR  1


C1    1   0.348100   0.506190   0.448510   11.00   0.04
C2    1   0.371740   0.588160   0.416130   11.00   0.04
C3    1   0.277060   0.638780   0.388210   11.00   0.04
C4    1   0.297580   0.713550   0.358250   11.00   0.04
C5    1   0.415480   0.739510   0.355590   11.00   0.04
C6    1   0.510680   0.690330   0.383120   11.00   0.04
C7    1   0.489380   0.615360   0.412970   11.00   0.04
HKLF 4
END
