TITL tosylate
REM This file was exported by DSR version 1.5.13-dbexport
REM Name: Tosylate anion, CH3C6H4SO3-
REM Src: Gaussian 03 B3LYP/6-31+G(d,p) Opt
CELL 0.71073    50.000   50.000   50.000   90.000   90.000   90.000
ZERR    1.00   0.000    0.000    0.000    0.000    0.000    0.000
LATT  -1
SFAC C  S  O
UNIT 1  1  1 
WGHT  0.1
FVAR  1


C1    1     0.053239    -0.000058     0.000003   11.00   0.04
C2    1     0.038671    -0.024041    -0.000006   11.00   0.04
C3    1     0.010737    -0.023999    -0.000020   11.00   0.04
C4    1    -0.003283     0.000174    -0.000025   11.00   0.04
C5    1     0.010930     0.024223    -0.000019   11.00   0.04
C6    1     0.038885     0.024039    -0.000007   11.00   0.04
S1    2    -0.039858     0.000029     0.000004   11.00   0.04
C7    1     0.083513    -0.000101     0.000016   11.00   0.04
O1    3    -0.047306     0.028925    -0.000274   11.00   0.04
O2    3    -0.047044    -0.014319     0.025173   11.00   0.04
O3    3    -0.047087    -0.014818    -0.024861   11.00   0.04
HKLF 4
END
