TITL triflate
REM This file was exported by DSR version 1.5.13-dbexport
REM Src: Daniel Kratzert
REM Name: Trifluoromethanesulfonate, CF3SO3-, Triflate
CELL 0.71073     5.854    7.970   12.001   79.267   75.914   71.054
ZERR    1.00   0.000    0.000    0.000    0.000    0.000    0.000
LATT  -1
SFAC C  F  S  O
UNIT 1  1  1  1 
WGHT  0.1
FVAR  1


C1    1   0.88571   0.50637   0.18685   11.00   0.04
F1    2   0.94881   0.65627   0.15170   11.00   0.04
F2    2   0.66156   0.53715   0.16645   11.00   0.04
F3    2   1.03940   0.38175   0.12271   11.00   0.04
S1    3   0.88987   0.43674   0.34015   11.00   0.04
O1    4   1.14297   0.40359   0.34715   11.00   0.04
O2    4   0.71954   0.58850   0.39393   11.00   0.04
O3    4   0.80703   0.27957   0.36326   11.00   0.04
HKLF 4
END
