TITL water
REM This file was exported by DSR version 1.5.13-dbexport
REM Src: CCDC GOGREB
REM Name: Water, H2O
CELL 0.71073    14.038   21.671   25.522   90.000   90.000   90.000
ZERR    1.00   0.000    0.000    0.000    0.000    0.000    0.000
LATT  -1
SFAC O  H
UNIT 1  1 
WGHT  0.1
FVAR  1


O1    1   0.894290   0.382300   0.416410   11.00   0.04
H1    2   0.951600   0.393900   0.420000   11.00   0.04
H2    2   0.858300   0.410300   0.429200   11.00   0.04
HKLF 4
END
