TITL Pbcn in Pbcn
    pbcn.res
    created by SHELXL-2016/6 at 17:02:42 on 24-Apr-2017
CELL 0.71073  16.8314  17.0774  32.5761  90.000  90.000  90.000
ZERR    8.00   0.0024   0.0025   0.0047   0.000   0.000   0.000
LATT 1
SYMM 0.5-X, 0.5-Y, 0.5+Z
SYMM -X, Y, 0.5-Z
SYMM 0.5+X, 0.5-Y, -Z
SFAC  C  H  N  GE
UNIT  1  2  3  4
REM Restraints for Fragment toluene, Toluene, C7H8 from: CCDC CESLUJ.
REM Please cite https://doi.org/10.1107/S1600576718004508
DFIX 1.3921 C3A C2A
DFIX 1.3775 C3A C4A
DFIX 1.5059 C2A C1A
DFIX 1.3946 C2A C7A
DFIX 1.3802 C7A C6A
DFIX 1.3814 C6A C5A
DFIX 1.3897 C5A C4A
DANG 2.5246 C1A C3A
DANG 2.5243 C1A C7A
DANG 2.4183 C2A C4A
DANG 2.4124 C2A C6A
DANG 2.3877 C3A C7A
DANG 2.3909 C3A C5A
DANG 2.3960 C4A C6A
DANG 2.3968 C5A C7A
FLAT C2A C5A C6A C7A
FLAT C1A C2A C6A C7A
FLAT C3A C4A C5A C6A
SIMU 0.04 0.08 1
LIST 6 ! automatically inserted. Change 6 to 4 for CHECKCIF!!
L.S.  0
BOND $H
REM ACTA
CONF
FMAP 2
PLAN 20

TEMP -173.000

WGHT    0.044800   37.513683
FVAR 0.04009 0.50000
N5    3    0.796530    0.177700    0.515350    11.00000    0.05000
C24   1    0.832250    0.130290    0.482180    11.00000    0.05000
C25   1    0.901530    0.085100    0.501810    11.00000    0.05000
C26   1    0.871800    0.182030    0.447820    11.00000    0.05000
C27   1    0.773410    0.074370    0.463150    11.00000    0.05000
N6    3    0.722650    0.255580    0.551020    11.00000    0.05000
C35   1    0.675130    0.323750    0.566270    11.00000    0.05000
C36   1    0.588030    0.318240    0.556910    11.00000    0.05000
C37   1    0.692620    0.329610    0.612590    11.00000    0.05000
C38   1    0.709030    0.402780    0.548490    11.00000    0.05000
N1    3    0.721740    0.056520    0.703740    11.00000    0.05000
C39   1    0.666190   -0.004440    0.689290    11.00000    0.05000
C40   1    0.712430   -0.083560    0.689980    11.00000    0.05000
C41   1    0.674180    0.000060    0.641810    11.00000    0.05000
C42   1    0.583480    0.015650    0.703610    11.00000    0.05000
N2    3    0.801830    0.129660    0.738790    11.00000    0.05000
C8    1    0.841910    0.172740    0.772280    11.00000    0.05000
C9    1    0.783060    0.209780    0.802020    11.00000    0.05000
C10   1    0.900090    0.120090    0.795090    11.00000    0.05000
C11   1    0.889530    0.237020    0.751120    11.00000    0.05000
GE1   4    0.762060    0.159690    0.681420    11.00000    0.05000
GE2   4    0.759200    0.151670    0.573880    11.00000    0.05000
N3    3    0.846130    0.131080    0.644950    11.00000    0.05000
N4    3    0.845210    0.179330    0.608850    11.00000    0.05000
C1    1    0.750880    0.070100    0.740980    11.00000    0.05000
C2    1    0.730910    0.024650    0.778890    11.00000    0.05000
C3    1    0.663260    0.041870    0.801730    11.00000    0.05000
C4    1    0.644960   -0.001770    0.836200    11.00000    0.05000
C5    1    0.693540   -0.062710    0.848220    11.00000    0.05000
C6    1    0.761500   -0.079860    0.826100    11.00000    0.05000
C7    1    0.779950   -0.036090    0.791300    11.00000    0.05000
C12   1    0.902940    0.071140    0.644360    11.00000    0.05000
C13   1    0.908800    0.019000    0.677830    11.00000    0.05000
C14   1    0.964430   -0.040740    0.677780    11.00000    0.05000
C15   1    1.016350   -0.050690    0.645310    11.00000    0.05000
C16   1    1.011720    0.000870    0.612660    11.00000    0.05000
C17   1    0.956420    0.061040    0.611810    11.00000    0.05000
C18   1    0.900100    0.241030    0.608130    11.00000    0.05000
C19   1    0.947690    0.260510    0.641690    11.00000    0.05000
C20   1    1.000220    0.323030    0.639740    11.00000    0.05000
C21   1    1.007770    0.366850    0.604140    11.00000    0.05000
C22   1    0.962630    0.346510    0.570380    11.00000    0.05000
C23   1    0.910040    0.284620    0.571920    11.00000    0.05000
C28   1    0.746680    0.237890    0.513390    11.00000    0.05000
C29   1    0.723820    0.280920    0.475370    11.00000    0.05000
C30   1    0.771700    0.340030    0.460580    11.00000    0.05000
C31   1    0.749800    0.381510    0.425710    11.00000    0.05000
C32   1    0.680070    0.363950    0.405860    11.00000    0.05000
C33   1    0.632710    0.305020    0.419910    11.00000    0.05000
C34   1    0.654210    0.262600    0.454590    11.00000    0.05000
PART -1  10.5
C1A   1    1.001372    0.595901   0.573940   10.50000    0.03000
C2A   1    1.000594    0.546550   0.535634   10.50000    0.03000
C3A   1    0.931984    0.538683   0.512126   10.50000    0.03000
C4A   1    0.930444    0.493359   0.477156   10.50000    0.03000
C5A   1    0.998823    0.454268   0.464840   10.50000    0.03000
C6A   1    1.067572    0.461503   0.487690   10.50000    0.03000
C7A   1    1.068593    0.506891   0.522742   10.50000    0.03000
PART 0
HKLF 4




REM  Pbcn in Pbcn
REM R1 =  0.3685 for    7495 Fo > 4sig(Fo)  and  0.3852 for all    9596 data
REM    202 parameters refined using      0 restraints

END 
 
WGHT      0.2000      0.0000 

REM Highest difference peak 11.361,  deepest hole -6.314,  1-sigma level  0.382
Q1    1   1.0005  0.5447  0.5342  11.00000  0.05    4.63
Q2    1   1.0686  0.4605  0.4874  11.00000  0.05    4.58
Q3    1   1.0664  0.5064  0.5208  11.00000  0.05    4.26
Q4    1   1.0017  0.5935  0.5688  11.00000  0.05    2.67
Q5    1   1.0164 -0.2626  0.7117  11.00000  0.05    2.53
Q6    1   0.9660 -0.2470  0.7126  11.00000  0.05    2.45
Q7    1   0.5526  0.2515  0.7781  11.00000  0.05    2.39
Q8    1   0.5975 -0.0266  0.7134  11.00000  0.05    2.07
Q9    1   0.5920  0.2663  0.7433  11.00000  0.05    2.07
Q10   1   0.5994  0.3389  0.5327  11.00000  0.05    1.89
Q11   1   0.6806 -0.0765  0.7088  11.00000  0.05    1.60
Q12   1   0.5617  0.2212  0.7419  11.00000  0.05    1.57
Q13   1   0.5183  0.2176  0.6638  11.00000  0.05    1.44
Q14   1   0.7680  0.1185  0.4456  11.00000  0.05    1.41
Q15   1   0.6523  0.2931  0.6070  11.00000  0.05    1.39
Q16   1   0.7382  0.4038  0.5664  11.00000  0.05    1.38
Q17   1   0.6086  0.2589  0.5991  11.00000  0.05    1.37
Q18   1   0.6372  0.0241  0.6461  11.00000  0.05    1.32
Q19   1   0.8265  0.0435  0.5068  11.00000  0.05    1.20
Q20   1   0.8016  0.1775  0.7110  11.00000  0.05    1.10
