TITL P-1_a.res in P-1
    P-1_a.res
    created by SHELXL-2018/3 at 12:49:45 on 02-Jul-2019
REM Old TITL P-1 in P-1
REM SHELXT solution in P-1: R1 0.335, Rweak 0.044, Alpha 0.198
REM <I/s>   0.000 for    0 systematic absences,  Orientation as input
REM Formula found by SHELXT:  C342 N44 O41 F147 Al10
CELL  1.54178  14.1063  22.4101  23.6299   74.759   87.046   85.820
ZERR   85.000   0.0007   0.0011   0.0013    0.004    0.004    0.003
LATT  1
SFAC  C  N  O  F  AL
UNIT  1  2  3  4  5
REM Restraints for Fragment pentafl, Pentafluorophenyl, -C6F5 from: CCDC
REM CIMYOO. Please cite https://doi.org/10.1107/S1600576718004508
SADI_PEFL C1 C2 C2 C3 C3 C4 C4 C5 C5 C6 C6 C1
SADI_PEFL C2 F1 C3 F2 C4 F3 C5 F4 C6 F5
SADI_PEFL 0.04 C1 C3 C1 C5 C4 C2 C4 C6 C5 C3 C2 C6
SADI_PEFL 0.04 C1 F1 F1 C3 C2 F2 F2 C4 C3 F3 F3 C5 C4 F4 F4 C6 C5 F5 F5 C1
FLAT_PEFL F1 > C6
SIMU_PEFL F1 > C6
RIGU_PEFL F1 > C6
SAME_PEFL F1 > C6
REM Restraints for Fragment oc(cf3)3, Nonafluoro-tert-butoxy, [(CF3)3CO]-
REM from: TURBOMOLE V6.0 B-P86/def-SV(P). Please cite
REM https://doi.org/10.1107/S1600576718004508
SADI_CCF3 0.02 C1 C2 C1 C3 C1 C4
SADI_CCF3 0.02 F1 C2 F2 C2 F3 C2 F4 C3 F5 C3 F6 C3 F7 C4 F8 C4 F9 C4
SADI_CCF3 0.04 C2 C3 C3 C4 C2 C4
SADI_CCF3 0.04 O1 C2 O1 C3 O1 C4
SADI_CCF3 0.04 F1 F2 F2 F3 F3 F1 F4 F5 F5 F6 F6 F4 F7 F8 F8 F9 F9 F7
SADI_CCF3 0.02 O1 C1
SADI_CCF3 0.1 F1 C1 F2 C1 F3 C1 F4 C1 F5 C1 F6 C1 F7 C1 F8 C1 F9 C1
SIMU_CCF3 O1 > F9
RIGU_CCF3 O1 > F9
SAME_CCF3 O1 > F9
SIMU 0.04 0.08 1
TEMP -173.150
L.S. 0
BOND
LIST 6
FMAP 2
PLAN 100
WGHT    0.100000
FVAR 0.26297
AL01  5    0.070300    0.059920    1.005960    11.00000    0.04060
F1    4    0.000000    0.000000    1.000000    10.50000    0.08579
C1    1    1.011780    0.750920    0.565350    11.00000    0.07165
AL02  5    0.575640    1.054080    0.511760    11.00000    0.04416
C2    1    0.563000    0.817100    0.816400    11.00000    0.05000
F2    4    0.000000    0.500000    1.000000    10.50000    0.09172
N2    2    1.023160    0.721430    0.626210    11.00000    0.04913
AL03  5    0.568330    0.498570    0.560230    11.00000    0.04671
C3    1    0.637900    0.749100    0.760500    11.00000    0.05000
F3    4    0.500000    1.000000    0.500000    10.50000    0.09348
AL04  5    0.117130    0.487330    0.969720    11.00000    0.08605
C4    1    0.553000    0.760800    0.809000    11.00000    0.05000
F4    4    0.624900    0.916300    0.797100    11.00000    0.05000
F007  4    0.624690    0.764270    1.035260    11.00000    0.06370
C7    1    0.322800    0.992300    0.786500    11.00000    0.05000
F7    4    0.755200    0.780300    0.711900    11.00000    0.05000
F6    4    0.637300    0.701300    0.753800    11.00000    0.05000
C6    1    0.284500    0.913300    0.758300    11.00000    0.05000
F5    4    0.497600    0.717600    0.828800    11.00000    0.05000
C5    1    0.630600    0.862700    0.783100    11.00000    0.05000
F008  4    0.287830    0.780780    1.029480    11.00000    0.05940
C8    1    0.437800    0.942500    0.837000    11.00000    0.05000
F8    4    0.214200    0.897290    0.717160    11.00000    0.10607
F009  4    1.162650    0.790520    0.434430    11.00000    0.06469
C9    1    0.711400    0.790700    0.740700    11.00000    0.05000
F9    4    0.208680    1.011220    0.737840    11.00000    0.11094
F00C  4    0.304240    0.814850    0.912600    11.00000    0.06915
F00D  4    0.500000    0.500000    0.500000    10.50000    0.05896
F00E  4    1.009910    0.678700    0.396910    11.00000    0.08503
F00G  4    1.111500    0.765600    0.301750    11.00000    0.06797
F00J  4    0.828860    0.792720    0.459230    11.00000    0.06671
F00L  4    0.638520    0.804460    0.919500    11.00000    0.06973
F00Q  4    1.177600    0.753820    0.550790    11.00000    0.07517
F00S  4    0.827160    0.863950    0.319380    11.00000    0.08665
F00V  4    0.847810    0.750750    0.577230    11.00000    0.07217
N010  2    0.447110    0.753200    1.097860    11.00000    0.04303
C10   1   0.40190   0.69250   1.12780  11.00000 0.05 
F10   4    0.335990    1.033720    0.805800    11.00000    0.10241
C11   1   0.29870   0.70280   1.15200  11.00000 0.05 
C12   1   0.44710   0.65350   1.11210  11.00000 0.05 
F12   4    0.336630    0.812960    0.777830    11.00000    0.09175
N015  2    0.985920    0.808660    0.381720    11.00000    0.04977
C15   1   0.46260   0.53350   1.14330  11.00000 0.05 
C14   1   0.32870   0.57500   1.15870  11.00000 0.05 
C13   1   0.28110   0.61950   1.17540  11.00000 0.05 
F019  4    1.227670    0.847980    0.224880    11.00000    0.08285
F01A  4    1.220690    0.964550    0.228230    11.00000    0.09630
F01H  4    0.988150    0.929330    0.379540    11.00000    0.09381
F01P  4    0.711010    0.798840    0.265890    11.00000    0.10043
F01W  4    0.895050    0.618410    0.343350    11.00000    0.09716
F024  4    1.100900    1.008440    0.305170    11.00000    0.09996
F027  4    0.745590    0.679910    0.282140    11.00000    0.10439
C02E  1    0.456990    0.771020    1.033610    11.00000    0.04921
N02N  2    0.478220    0.832870    0.852040    11.00000    0.07506
C02V  1    0.543630    0.773620    1.007310    11.00000    0.05921
C02W  1    0.920950    0.772550    0.358760    11.00000    0.06260
C033  1    0.994440    0.788910    0.445180    11.00000    0.05503
C037  1    0.917190    0.780280    0.479350    11.00000    0.05157
C03A  1    0.843700    0.801920    0.323650    11.00000    0.05108
C03B  1    1.092050    0.762980    0.528130    11.00000    0.06008
C03C  1    1.106950    0.825910    0.302710    11.00000    0.06420
C03F  1    0.481920    0.785540    1.131450    11.00000    0.05544
C03I  1    1.085010    0.782760    0.467510    11.00000    0.05264
C03M  1    0.470490    0.807330    0.912650    11.00000    0.06044
C03N  1    0.375520    0.788220    0.999370    11.00000    0.06101
C03P  1    0.936720    0.708680    0.362280    11.00000    0.05633
C03Q  1    0.552220    0.794800    0.948490    11.00000    0.06165
C03X  1    1.043490    0.846600    0.342730    11.00000    0.06578
C046  1    0.787220    0.771000    0.300290    11.00000    0.06672
C047  1    0.382700    0.802260    0.941250    11.00000    0.05904
C04D  1    0.927210    0.758550    0.541480    11.00000    0.05333
C04Q  1    0.478910    0.758040    1.195640    11.00000    0.07678
C04R  1    1.163850    0.924010    0.267300    11.00000    0.08221
C04S  1    0.519340    0.844240    1.106010    11.00000    0.06769
C04U  1    1.042970    0.910530    0.340300    11.00000    0.06700
C04V  1    1.105340    0.947460    0.300740    11.00000    0.09344
C04Z  1    1.165170    0.866740    0.264680    11.00000    0.07563
C055  1    0.809660    0.706440    0.304530    11.00000    0.07247
C059  1    0.876930    0.680600    0.338180    11.00000    0.07750
C05A  1    1.048400    0.748700    0.662580    11.00000    0.07244
C05D  1    0.419020    0.883420    0.821180    11.00000    0.07316
C05G  1    1.065850    0.715130    0.722960    11.00000    0.09349
C05M  1    0.347490    0.872210    0.782590    11.00000    0.08858
C05T  1    0.283450    0.967160    0.758480    11.00000    0.09800
C069  1    1.079760    0.817180    0.647660    11.00000    0.11290
C06E  1    0.576660    0.714850    1.206380    11.00000    0.09480
C06T  1    0.478620    0.809750    1.228290    11.00000    0.08354
C07I  1    1.189440    0.711190    0.721470    11.00000    0.13716
C07T  1    1.016120    0.745200    0.772870    11.00000    0.16047
RESI CCF3 1
O1    3    0.602450    0.423410    0.581351    11.00000    0.03000
C1    1    0.675354    0.378615    0.602662    11.00000    0.03000
C2    1    0.641325    0.312515    0.605677    11.00000    0.03000
F1    4    0.640485    0.302794    0.552027    11.00000    0.03000
F2    4    0.695235    0.266679    0.639886    11.00000    0.03000
F3    4    0.550640    0.309298    0.628089    11.00000    0.03000
C3    1    0.702555    0.382507    0.665270    11.00000    0.03000
F4    4    0.711168    0.441550    0.665606    11.00000    0.03000
F5    4    0.631681    0.360430    0.704590    11.00000    0.03000
F6    4    0.783842    0.349546    0.683366    11.00000    0.03000
C4    1    0.761489    0.394098    0.557806    11.00000    0.03000
F7    4    0.803402    0.444068    0.563698    11.00000    0.03000
F8    4    0.827029    0.345921    0.566938    11.00000    0.03000
F9    4    0.732540    0.406115    0.502662    11.00000    0.03000
RESI 0
RESI CCF3 2
O1    3    0.662272    0.541907    0.534207    11.00000    0.03000
C1    1    0.698665    0.599899    0.527273    11.00000    0.03000
C2    1    0.697133    0.615314    0.588540    11.00000    0.03000
F1    4    0.608560    0.631151    0.605288    11.00000    0.03000
F2    4    0.753420    0.660936    0.588926    11.00000    0.03000
F3    4    0.728082    0.563547    0.629284    11.00000    0.03000
C3    1    0.803136    0.599383    0.500601    11.00000    0.03000
F4    4    0.808133    0.573270    0.455548    11.00000    0.03000
F5    4    0.861739    0.564519    0.542108    11.00000    0.03000
F6    4    0.835562    0.656407    0.482104    11.00000    0.03000
C4    1    0.631490    0.647551    0.484176    11.00000    0.03000
F7    4    0.647023    0.642887    0.428804    11.00000    0.03000
F8    4    0.647259    0.705893    0.485222    11.00000    0.03000
F9    4    0.540194    0.637299    0.499294    11.00000    0.03000
RESI 0
RESI CCF3 3
O1    3    0.500387    0.524804    0.608902    11.00000    0.03000
C1    1    0.426824    0.518459    0.651665    11.00000    0.03000
C2    1    0.372669    0.583368    0.647033    11.00000    0.03000
F1    4    0.423770    0.620069    0.668638    11.00000    0.03000
F2    4    0.287057    0.578884    0.674777    11.00000    0.03000
F3    4    0.359899    0.611782    0.589392    11.00000    0.03000
C3    1    0.356579    0.470586    0.642662    11.00000    0.03000
F4    4    0.405144    0.420078    0.633645    11.00000    0.03000
F5    4    0.305841    0.496631    0.594081    11.00000    0.03000
F6    4    0.295293    0.453094    0.688508    11.00000    0.03000
C4    1    0.475576    0.494223    0.712248    11.00000    0.03000
F7    4    0.504862    0.434034    0.721675    11.00000    0.03000
F8    4    0.413776    0.500133    0.756224    11.00000    0.03000
F9    4    0.551425    0.526244    0.713849    11.00000    0.03000
RESI 0
RESI CCF3 4
O1    3    0.185291    0.034511    1.000336    11.00000    0.03000
C1    1    0.262342   -0.006569    1.022090    11.00000    0.03000
C2    1    0.330487    0.026218    1.053423    11.00000    0.03000
F1    4    0.293597    0.030672    1.105772    11.00000    0.03000
F2    4    0.417217   -0.002887    1.061188    11.00000    0.03000
F3    4    0.340425    0.084799    1.019595    11.00000    0.03000
C3    1    0.317143   -0.027620    0.970234    11.00000    0.03000
F4    4    0.255769   -0.042858    0.935698    11.00000    0.03000
F5    4    0.364910    0.020406    0.936714    11.00000    0.03000
F6    4    0.379977   -0.075944    0.989115    11.00000    0.03000
C4    1    0.218957   -0.063214    1.067162    11.00000    0.03000
F7    4    0.176972   -0.098891    1.039288    11.00000    0.03000
F8    4    0.287844   -0.098422    1.100222    11.00000    0.03000
F9    4    0.153505   -0.043940    1.102575    11.00000    0.03000
RESI 0
RESI CCF3 5
O1    3    0.032978    0.069882    1.071363    11.00000    0.03000
C1    1    0.017876    0.110001    1.107816    11.00000    0.03000
C2    1   -0.047474    0.167918    1.076431    11.00000    0.03000
F1    4    0.000717    0.206731    1.033419    11.00000    0.03000
F2    4   -0.086259    0.199662    1.113615    11.00000    0.03000
F3    4   -0.119045    0.147819    1.051242    11.00000    0.03000
C3    1   -0.030026    0.075019    1.167805    11.00000    0.03000
F4    4    0.014104    0.019010    1.188248    11.00000    0.03000
F5    4   -0.121681    0.066137    1.158953    11.00000    0.03000
F6    4   -0.029504    0.106516    1.208920    11.00000    0.03000
C4    1    0.118548    0.130108    1.117623    11.00000    0.03000
F7    4    0.167810    0.083759    1.154751    11.00000    0.03000
F8    4    0.109925    0.179311    1.140746    11.00000    0.03000
F9    4    0.168675    0.145448    1.066795    11.00000    0.03000
RESI 0
RESI CCF3 6
O1    3    0.043453    0.118885    0.952429    11.00000    0.03000
C1    1    0.070504    0.159935    0.899440    11.00000    0.03000
C2    1   -0.017978    0.203630    0.873661    11.00000    0.03000
F1    4   -0.038865    0.246722    0.903281    11.00000    0.03000
F2    4   -0.005546    0.232267    0.816563    11.00000    0.03000
F3    4   -0.094496    0.168714    0.879815    11.00000    0.03000
C3    1    0.110806    0.122355    0.854900    11.00000    0.03000
F4    4    0.171660    0.075854    0.881279    11.00000    0.03000
F5    4    0.037955    0.096760    0.836332    11.00000    0.03000
F6    4    0.155110    0.157920    0.807673    11.00000    0.03000
C4    1    0.149411    0.198423    0.914629    11.00000    0.03000
F7    4    0.232024    0.164079    0.924994    11.00000    0.03000
F8    4    0.164461    0.248416    0.869532    11.00000    0.03000
F9    4    0.123555    0.217595    0.962572    11.00000    0.03000
RESI 0
RESI CCF3 7
O1    3    0.095496    0.474176    0.907756    11.00000    0.03000
C1    1    0.118012    0.454326    0.857030    11.00000    0.03000
C2    1    0.215333    0.414549    0.864644    11.00000    0.03000
F1    4    0.205159    0.357998    0.900827    11.00000    0.03000
F2    4    0.254549    0.408080    0.813488    11.00000    0.03000
F3    4    0.276884    0.443297    0.889465    11.00000    0.03000
C3    1    0.124627    0.512141    0.802510    11.00000    0.03000
F4    4    0.050602    0.552932    0.803343    11.00000    0.03000
F5    4    0.204748    0.541124    0.805406    11.00000    0.03000
F6    4    0.127393    0.496670    0.751227    11.00000    0.03000
C4    1    0.035212    0.413857    0.850570    11.00000    0.03000
F7    4   -0.043663    0.449696    0.832028    11.00000    0.03000
F8    4    0.060642    0.381151    0.811155    11.00000    0.03000
F9    4    0.013861    0.374338    0.902094    11.00000    0.03000
RESI 0
RESI CCF3 8
O1    3    0.155893    0.422808    1.016094    11.00000    0.03000
C1    1    0.203421    0.387810    1.065624    11.00000    0.03000
C2    1    0.311596    0.377492    1.048801    11.00000    0.03000
F1    4    0.324695    0.335304    1.017528    11.00000    0.03000
F2    4    0.366297    0.359610    1.095824    11.00000    0.03000
F3    4    0.342016    0.431805    1.014434    11.00000    0.03000
C3    1    0.192058    0.422528    1.115658    11.00000    0.03000
F4    4    0.101512    0.443419    1.121091    11.00000    0.03000
F5    4    0.245723    0.472552    1.101027    11.00000    0.03000
F6    4    0.219507    0.386456    1.167859    11.00000    0.03000
C4    1    0.155240    0.324429    1.084936    11.00000    0.03000
F7    4    0.069264    0.331040    1.110749    11.00000    0.03000
F8    4    0.209468    0.282496    1.123621    11.00000    0.03000
F9    4    0.143549    0.302411    1.038472    11.00000    0.03000
RESI 0
RESI CCF3 9
O1    3    0.179838    0.545820    0.965826    11.00000    0.03000
C1    1    0.229256    0.599287    0.958982    11.00000    0.03000
C2    1    0.210096    0.644323    0.896762    11.00000    0.03000
F1    4    0.258248    0.624127    0.854198    11.00000    0.03000
F2    4    0.232662    0.702469    0.892677    11.00000    0.03000
F3    4    0.116001    0.645555    0.886501    11.00000    0.03000
C3    1    0.196050    0.631890    1.008646    11.00000    0.03000
F4    4    0.192496    0.590202    1.060916    11.00000    0.03000
F5    4    0.106792    0.658155    0.997937    11.00000    0.03000
F6    4    0.253142    0.676254    1.011791    11.00000    0.03000
C4    1    0.337153    0.577123    0.964255    11.00000    0.03000
F7    4    0.357840    0.549439    1.020382    11.00000    0.03000
F8    4    0.391779    0.625876    0.945030    11.00000    0.03000
F9    4    0.359559    0.536460    0.932389    11.00000    0.03000
RESI 0
RESI CCF3 10
O1    3    0.680977    1.013533    0.515574    11.00000    0.03000
C1    1    0.776867    1.012994    0.497324    11.00000    0.03000
C2    1    0.830147    0.951523    0.532891    11.00000    0.03000
F1    4    0.808809    0.902681    0.514136    11.00000    0.03000
F2    4    0.924953    0.954640    0.530024    11.00000    0.03000
F3    4    0.800493    0.940773    0.590100    11.00000    0.03000
C3    1    0.822811    1.071114    0.507385    11.00000    0.03000
F4    4    0.765931    1.122294    0.488214    11.00000    0.03000
F5    4    0.832602    1.063137    0.565794    11.00000    0.03000
F6    4    0.908777    1.080188    0.480493    11.00000    0.03000
C4    1    0.778471    1.015578    0.430367    11.00000    0.03000
F7    4    0.751123    1.072711    0.398319    11.00000    0.03000
F8    4    0.867105    1.001001    0.411901    11.00000    0.03000
F9    4    0.719401    0.975706    0.420238    11.00000    0.03000
RESI 0
RESI CCF3 11
O1    3    0.570211    1.112796    0.455139    11.00000    0.03000
C1    1    0.537290    1.168406    0.416759    11.00000    0.03000
C2    1    0.426258    1.177148    0.425133    11.00000    0.03000
F1    4    0.381352    1.139603    0.400993    11.00000    0.03000
F2    4    0.392614    1.235693    0.402429    11.00000    0.03000
F3    4    0.403814    1.161433    0.483554    11.00000    0.03000
C3    1    0.586904    1.224011    0.429352    11.00000    0.03000
F4    4    0.680574    1.210447    0.435034    11.00000    0.03000
F5    4    0.551403    1.233626    0.480934    11.00000    0.03000
F6    4    0.573136    1.276902    0.387082    11.00000    0.03000
C4    1    0.564637    1.162171    0.353356    11.00000    0.03000
F7    4    0.658439    1.167615    0.341696    11.00000    0.03000
F8    4    0.517351    1.206957    0.313200    11.00000    0.03000
F9    4    0.543004    1.106916    0.347659    11.00000    0.03000
RESI 0
RESI CCF3 12
O1    3    0.538407    1.068731    0.571666    11.00000    0.03000
C1    1    0.532956    1.081599    0.626579    11.00000    0.03000
C2    1    0.428177    1.104760    0.639626    11.00000    0.03000
F1    4    0.408322    1.163137    0.608035    11.00000    0.03000
F2    4    0.410663    1.101931    0.696585    11.00000    0.03000
F3    4    0.367585    1.068248    0.623469    11.00000    0.03000
C3    1    0.564001    1.021594    0.675224    11.00000    0.03000
F4    4    0.643696    0.994123    0.657898    11.00000    0.03000
F5    4    0.495023    0.980669    0.683504    11.00000    0.03000
F6    4    0.578458    1.033393    0.726874    11.00000    0.03000
C4    1    0.602954    1.133896    0.622362    11.00000    0.03000
F7    4    0.693877    1.110974    0.623452    11.00000    0.03000
F8    4    0.586814    1.159353    0.668000    11.00000    0.03000
F9    4    0.591691    1.178404    0.572389    11.00000    0.03000
RESI 0
RESI PEFL 13
PART 1  11
F1    4    0.872952    0.672605   0.710193   11.00000    0.03000
F2    4    0.829648    0.554131   0.735905   11.00000    0.03000
F3    4    0.933072    0.472127   0.686678   11.00000    0.03000
F4    4    1.081472    0.510888   0.611842   11.00000    0.03000
F5    4    1.120452    0.630452   0.580687   11.00000    0.03000
C1    1    0.998582    0.656640   0.644660   11.00000    0.03000
C2    1    0.924491    0.634285   0.683552   11.00000    0.03000
C3    1    0.901465    0.573111   0.697962   11.00000    0.03000
C4    1    0.954373    0.531523   0.673569   11.00000    0.03000
C5    1    1.028602    0.551679   0.634869   11.00000    0.03000
C6    1    1.049107    0.613033   0.620353   11.00000    0.03000
PART 0
RESI 0
HKLF 4
REM  P-1_a.res in P-1
REM wR2 = 0.9055, GooF = S = 20.407, Restrained GooF = 15.297 for all data
REM R1 = 0.8329 for 13242 Fo > 4sig(Fo) and 1.0839 for all 21035 data
REM 1081 parameters refined using 20145 restraints
END 
 
WGHT      0.2000      0.0000 
REM Highest difference peak  5.691,  deepest hole -6.671,  1-sigma level  0.815
Q1    1   0.2683  0.7510  1.1523  11.00000  0.05    5.69
Q2    1   0.5373  0.6444  1.0900  11.00000  0.05    5.25
Q3    1   0.1941  0.2249  0.8602  11.00000  0.05    4.98
Q4    1   0.8027  0.3330  0.5473  11.00000  0.05    4.63
Q5    1  -0.0746  0.2230  0.9177  11.00000  0.05    4.48
Q6    1   0.2040  0.1791  0.9474  11.00000  0.05    4.26
Q7    1   0.8206  0.3572  0.6623  11.00000  0.05    4.22
Q8    1   0.6863  0.6548  0.4425  11.00000  0.05    4.21
Q9    1   0.2847  0.5314  1.1887  11.00000  0.05    4.15
Q10   1   0.1935  0.6291  1.1983  11.00000  0.05    4.12
Q11   1   0.1529  0.1506  1.0926  11.00000  0.05    4.01
Q12   1   0.0848  0.0702  0.8593  11.00000  0.05    3.98
Q13   1   0.0040  0.2538  0.8344  11.00000  0.05    3.87
Q14   1   0.5431  1.2487  0.3275  11.00000  0.05    3.87
Q17   1  -0.0229  0.0463  1.1671  11.00000  0.05    3.81
Q18   1   0.5682  1.0729  0.7179  11.00000  0.05    3.73
Q19   1   0.1567  0.4935  0.9598  11.00000  0.05    3.69
Q20   1   0.4726  0.9484  0.8621  11.00000  0.05    3.67
Q21   1   0.2207  0.9175  0.7347  11.00000  0.05    3.64
Q22   1   0.3542  0.3340  1.0793  11.00000  0.05    3.62
Q23   1   0.1632 -0.0646  1.0914  11.00000  0.05    3.59
Q24   1   0.8394  0.5554  0.4761  11.00000  0.05    3.56
Q25   1   0.2076  0.3006  1.0250  11.00000  0.05    3.56
Q26   1   0.5234  1.0015  0.7019  11.00000  0.05    3.49
Q27   1  -0.0149  0.4796  0.8132  11.00000  0.05    3.36
Q28   1   0.5138  1.1478  0.3182  11.00000  0.05    3.34
Q29   1   1.1121  0.7888  0.3092  11.00000  0.05    3.33
Q30   1   0.0935  0.5485  0.7936  11.00000  0.05    3.32
Q31   1   0.4000  1.2224  0.3725  11.00000  0.05    3.32
Q33   1   0.0985  0.1487  0.8013  11.00000  0.05    3.30
Q34   1   0.2178 -0.1101  1.0394  11.00000  0.05    3.30
Q35   1   0.3857  1.1476  0.4621  11.00000  0.05    3.29
Q36   1  -0.0770  0.1705  0.8513  11.00000  0.05    3.27
Q37   1   0.0796  0.2461  0.9406  11.00000  0.05    3.26
Q38   1   0.5559  1.2121  0.4594  11.00000  0.05    3.22
Q39   1   0.4075  1.1983  0.3954  11.00000  0.05    3.21
Q40   1   0.5219  0.7851  0.8179  11.00000  0.05    3.21
Q41   1   0.2383 -0.0194  0.9323  11.00000  0.05    3.21
Q42   1   0.3313  0.8489  0.7805  11.00000  0.05    3.20
Q43   1   0.6886  1.1821  0.3677  11.00000  0.05    3.20
Q44   1   0.8438  0.6317  0.4809  11.00000  0.05    3.19
Q45   1   0.2471  0.1445  0.8968  11.00000  0.05    3.14
Q46   1   0.3835  1.1370  0.5898  11.00000  0.05    3.11
Q48   1   0.1798  0.1166  0.8647  11.00000  0.05    3.06
Q49   1  -0.0135  0.4464  0.8091  11.00000  0.05    3.05
Q50   1   0.8163  0.5681  0.5118  11.00000  0.05    3.05
Q51   1   0.8396  0.5652  0.5672  11.00000  0.05    3.02
Q53   1   0.6555  0.3333  0.5310  11.00000  0.05    3.02
Q54   1   0.6569  0.3400  0.7021  11.00000  0.05    3.02
Q55   1   0.9191  1.0255  0.4691  11.00000  0.05    3.00
Q56   1   0.5035  1.0725  0.5890  11.00000  0.05    2.97
Q57   1   0.7583  0.4173  0.5184  11.00000  0.05    2.96
Q58   1   0.1350  0.4188  1.1125  11.00000  0.05    2.96
Q59   1  -0.0336  0.1945  1.0474  11.00000  0.05    2.96
Q60   1   0.3679  0.3958  1.0112  11.00000  0.05    2.95
Q61   1   0.3200 -0.1032  1.0863  11.00000  0.05    2.94
Q62   1   0.8792  1.0196  0.4404  11.00000  0.05    2.94
Q63   1   0.1766  0.6414  0.8766  11.00000  0.05    2.93
Q65   1   0.1615  0.0944  1.1774  11.00000  0.05    2.93
Q66   1   0.2448  0.3871  0.8680  11.00000  0.05    2.93
Q67   1   0.6480  0.5371  0.5238  11.00000  0.05    2.93
Q68   1  -0.0605  0.0845  1.2216  11.00000  0.05    2.92
Q69   1   0.4142  1.1244  0.6170  11.00000  0.05    2.91
Q70   1   0.9567  0.7237  0.3522  11.00000  0.05    2.91
Q71   1   0.3376  0.3793  1.0079  11.00000  0.05    2.90
Q72   1   0.5821  1.0714  0.3715  11.00000  0.05    2.88
Q73   1   0.7429  0.4293  0.6503  11.00000  0.05    2.88
Q74   1   0.3035  0.6515  1.0114  11.00000  0.05    2.87
Q75   1   0.1577  0.4502  1.1252  11.00000  0.05    2.86
Q76   1   0.6257  1.2391  0.4102  11.00000  0.05    2.86
Q77   1   0.5033  1.2104  0.5105  11.00000  0.05    2.86
Q78   1   0.7984  1.0388  0.4074  11.00000  0.05    2.85
Q79   1   0.5743  0.6528  0.4913  11.00000  0.05    2.84
Q80   1   0.6040  0.8445  0.7821  11.00000  0.05    2.84
Q81   1   0.4543  0.7386  1.1080  11.00000  0.05    2.84
Q82   1   0.7957  0.4106  0.5800  11.00000  0.05    2.84
Q83   1   0.6804  0.4112  0.6752  11.00000  0.05    2.83
Q84   1   0.3733  0.0672  1.0259  11.00000  0.05    2.83
Q85   1   0.7878  0.9249  0.5611  11.00000  0.05    2.80
Q86   1   0.4974  0.4612  0.7322  11.00000  0.05    2.80
Q87   1   0.4217  0.7079  0.8414  11.00000  0.05    2.79
Q88   1   0.1016  0.1414  1.1313  11.00000  0.05    2.77
Q89   1   0.6162  0.4346  0.5972  11.00000  0.05    2.77
Q90   1   0.6553  1.1391  0.6273  11.00000  0.05    2.76
Q91   1   0.2601  0.6413  0.8758  11.00000  0.05    2.76
Q92   1   0.5037  0.8126  0.9269  11.00000  0.05    2.76
Q93   1   0.7383  1.0163  0.4006  11.00000  0.05    2.75
Q94   1   1.0445  0.5480  0.6245  11.00000  0.05    2.74
Q95   1   0.3671  0.5935  0.9828  11.00000  0.05    2.74
Q96   1   1.1196  0.7477  0.5428  11.00000  0.05    2.73
Q97   1   0.0144  0.3822  0.8336  11.00000  0.05    2.73
Q98   1   0.6593  1.2083  0.4721  11.00000  0.05    2.72
Q99   1   0.0329  0.1980  1.0569  11.00000  0.05    2.72
Q100  1   0.0651  0.1773  1.1516  11.00000  0.05    2.71
