TITL p21c in P2(1)/c
    3-erg.res
    created by SHELXL-2018/3 at 08:54:41 on 17-Aug-2018
CELL 0.71073 10.5086 20.9035 20.5072 90 94.13 90
ZERR 4 0.0003 0.0005 0.0005 0 0.001 0
LATT 1
SYMM -X,0.5+Y,0.5-Z
SFAC  C  H  O  F  AL  GA
UNIT  1  2  3  4  5  6
LIST 4 ! automatically inserted. Change 6 to 4 for CHECKCIF!!

L.S.  8
PLAN  20
TEMP -173.18
BOND $H
fmap 2

SAME_CCF3 O1 > F9

REM Restraints for Fragment oc(cf3)3, Nonafluoro-tert-butoxy, [(CF3)3CO]-
REM from: TURBOMOLE V6.0 B-P86/def-SV(P). Please cite
REM doi:10.1107/S1600576715005580
SADI_CCF3 0.02 C1 C2 C1 C3 C1 C4
SADI_CCF3 0.02 F1 C2 F2 C2 F3 C2 F4 C3 F5 C3 F6 C3 F7 C4 F8 C4 F9 C4
SADI_CCF3 0.04 C2 C3 C3 C4 C2 C4
SADI_CCF3 0.04 O1 C2 O1 C3 O1 C4
SADI_CCF3 0.04 F1 F2 F2 F3 F3 F1 F4 F5 F5 F6 F6 F4 F7 F8 F8 F9 F9 F7
DFIX_CCF3 1.35 O1 C1
SADI_CCF3 0.1 F1 C1 F2 C1 F3 C1 F4 C1 F5 C1 F6 C1 F7 C1 F8 C1 F9 C1
SIMU_CCF3 O1 > F9
RIGU_CCF3 O1 > F9

WGHT    0.049400    0.393100
FVAR       0.08683   0.48173   0.55494
GA1   6    0.639514    0.561735    0.237758    11.00000    0.02410    0.02506 =
         0.02491    0.00001   -0.00157    0.00158
AL1   5    0.064286    0.260189    0.478726    11.00000    0.01605    0.01976 =
         0.01367   -0.00008   -0.00218    0.00124
RESI 5 CCF3
PART 2 -21
O1    3    0.140614    0.206641    0.532529   -21.00000    0.02074    0.02627 =
         0.01405    0.00529    0.00037    0.00434
C1    1    0.182462    0.146578    0.545699   -21.00000    0.01948    0.02476 =
         0.02039   -0.00021   -0.00396    0.00820
C2    1    0.091440    0.094896    0.515331   -21.00000    0.02831    0.03054 =
         0.03615   -0.00076   -0.00433    0.00183
F1    4   -0.029862    0.112127    0.520069   -21.00000    0.02309    0.04453 =
         0.06264   -0.00498   -0.00592   -0.00316
F2    4    0.108474    0.038947    0.546025   -21.00000    0.05059    0.02518 =
         0.04784   -0.00018   -0.00666   -0.00481
F3    4    0.107917    0.085448    0.452547   -21.00000    0.05353    0.03851 =
         0.03372   -0.01246   -0.00966    0.00641
C3    1    0.316290    0.137041    0.519931   -21.00000    0.03121    0.02645 =
         0.04986    0.01006    0.00709    0.00426
F4    4    0.405871    0.168080    0.556580   -21.00000    0.02258    0.03782 =
         0.08993    0.00426   -0.00672   -0.00319
F5    4    0.319258    0.157507    0.458117   -21.00000    0.04392    0.04428 =
         0.04357    0.01642    0.01901    0.01375
F6    4    0.353945    0.075802    0.521560   -21.00000    0.02944    0.03594 =
         0.05506    0.01201    0.00766    0.02074
C4    1    0.192829    0.140507    0.621273   -21.00000    0.04270    0.02764 =
         0.02387    0.00675   -0.00759    0.00141
F7    4    0.245317    0.192752    0.649159   -21.00000    0.05148    0.03815 =
         0.03158   -0.00566   -0.01829   -0.00504
F8    4    0.264098    0.090265    0.642332   -21.00000    0.06092    0.04431 =
         0.04015    0.01616   -0.01303    0.01446
F9    4    0.078599    0.131921    0.643563   -21.00000    0.05677    0.04925 =
         0.03362    0.01036    0.01869    0.00376
PART 0
RESI 0

REM REM DSR PUT OC(CF3)3 WITH O1 C1 C2 C3 ON O1_4 C1_4 Q6 Q7 PART 2 OCC -31

SADI 0.02 C1A C2A C1A C3A C1A C4A
SADI 0.02 F1A C2A F2A C2A F3A C2A F4A C3A F5A C3A F6A C3A F7A C4A F8A C4A =
   F9A C4A
SADI 0.04 C2A C3A C3A C4A C2A C4A
SADI 0.04 O1A C2A O1A C3A O1A C4A
SADI 0.04 F1A F2A F2A F3A F3A F1A F4A F5A F5A F6A F6A F4A F7A F8A F8A F9A =
   F9A F7A
SADI 0.02 O1A C1A
SADI 0.1 F1A C1A F2A C1A F3A C1A F4A C1A F5A C1A F6A C1A F7A C1A F8A C1A =
   F9A C1A
SIMU O1A > F9A
RIGU O1A > F9A
PART 2  -31
O1A   3    0.079685    0.235385    0.399356   -31.00000    0.02086    0.01153 =
         0.01661   -0.00463   -0.00141    0.00415
C1A   1    0.028916    0.234561    0.336495   -31.00000    0.02109    0.03621 =
         0.01184   -0.00854   -0.00064    0.00361
C2A   1    0.121527    0.194429    0.298102   -31.00000    0.02937    0.04638 =
         0.01601   -0.00486   -0.00061    0.00922
F1A   4    0.242376    0.210535    0.315066   -31.00000    0.01865    0.07387 =
         0.03251   -0.00723    0.00542    0.01498
F2A   4    0.101961    0.199658    0.233488   -31.00000    0.04845    0.06431 =
         0.01652   -0.01178    0.00137    0.01712
F3A   4    0.112064    0.131989    0.311397   -31.00000    0.05811    0.03870 =
         0.03419   -0.00570    0.00171    0.01905
C3A   1   -0.103273    0.202162    0.332255   -31.00000    0.02884    0.06139 =
         0.01444   -0.00584   -0.00344   -0.00752
F4A   4   -0.194074    0.242544    0.347028   -31.00000    0.01983    0.08411 =
         0.03129   -0.01468   -0.00646    0.00772
F5A   4   -0.105487    0.152257    0.372849   -31.00000    0.04445    0.06995 =
         0.04388    0.01441   -0.00589   -0.01921
F6A   4   -0.134927    0.178775    0.272213   -31.00000    0.03014    0.08012 =
         0.02418   -0.01750   -0.00897   -0.01268
C4A   1    0.018680    0.302450    0.307468   -31.00000    0.04637    0.04165 =
         0.01836    0.00000   -0.00809    0.00620
F7A   4   -0.032533    0.340609    0.350325   -31.00000    0.06782    0.04283 =
         0.03763   -0.00821   -0.01397    0.02654
F8A   4   -0.057299    0.301426    0.252239   -31.00000    0.07871    0.07142 =
         0.02549    0.00361   -0.02595    0.02331
F9A   4    0.130524    0.325357    0.293368   -31.00000    0.06246    0.04402 =
         0.03524    0.00847   -0.00168   -0.01304
PART 0

RESI 1 CCF3
O1    3   -0.097377    0.260920    0.489320    11.00000    0.01715    0.02591 =
         0.01668   -0.00402    0.00038    0.00075
C1    1   -0.187329    0.282853    0.527525    11.00000    0.01740    0.02275 =
         0.01761   -0.00045   -0.00185    0.00123
C2    1   -0.154295    0.264418    0.600342    11.00000    0.02028    0.03791 =
         0.02202   -0.00163   -0.00018    0.00595
F1    4   -0.175174    0.202442    0.610085    11.00000    0.04036    0.04361 =
         0.02848    0.01316    0.00113    0.00371
F2    4   -0.222347    0.297021    0.641452    11.00000    0.03270    0.06799 =
         0.01961   -0.00709    0.00367    0.01584
F3    4   -0.031494    0.275547    0.616634    11.00000    0.02271    0.05773 =
         0.02205   -0.00626   -0.00803    0.00741
C3    1   -0.201065    0.356736    0.522196    11.00000    0.02162    0.02861 =
         0.02950   -0.00575    0.00033    0.00038
F4    4   -0.189475    0.376062    0.461251    11.00000    0.04570    0.02836 =
         0.03494    0.00597    0.00445    0.00180
F5    4   -0.110402    0.386671    0.560074    11.00000    0.02689    0.03294 =
         0.04591   -0.01522   -0.00148   -0.00429
F6    4   -0.313243    0.377298    0.540560    11.00000    0.02368    0.03308 =
         0.04455   -0.00662   -0.00017    0.00937
C4    1   -0.316000    0.251675    0.503977    11.00000    0.02158    0.02823 =
         0.02398    0.00043    0.00068    0.00063
F7    4   -0.362576    0.278246    0.447773    11.00000    0.02266    0.04200 =
         0.02735    0.00098   -0.01008    0.00184
F8    4   -0.404368    0.257826    0.547034    11.00000    0.02066    0.04888 =
         0.03553   -0.00151    0.00543   -0.00234
F9    4   -0.301438    0.189581    0.492523    11.00000    0.02686    0.02731 =
         0.04230   -0.00400   -0.00177   -0.00538
RESI 0

RESI 2 CCF3
O1    3    0.120481    0.336569    0.494130    11.00000    0.01588    0.02188 =
         0.02317   -0.00116   -0.00225   -0.00155
C1    1    0.223160    0.375171    0.503832    11.00000    0.01582    0.02217 =
         0.02105    0.00097   -0.00346   -0.00057
C2    1    0.325786    0.359146    0.456105    11.00000    0.02132    0.02869 =
         0.03025   -0.00081   -0.00011   -0.00077
F1    4    0.342792    0.296335    0.451996    11.00000    0.02512    0.03089 =
         0.04942   -0.00942    0.00444    0.00465
F2    4    0.439106    0.385302    0.473517    11.00000    0.01744    0.04368 =
         0.05139   -0.00535    0.00371   -0.00637
F3    4    0.290698    0.379737    0.395769    11.00000    0.03926    0.04641 =
         0.02535    0.00202    0.00752   -0.00340
C3    1    0.178824    0.445129    0.492617    11.00000    0.02206    0.02524 =
         0.02746    0.00162   -0.00195   -0.00065
F4    4    0.116016    0.466244    0.542720    11.00000    0.03137    0.02817 =
         0.03889   -0.00870    0.00248    0.00360
F5    4    0.100277    0.449626    0.439087    11.00000    0.03723    0.03256 =
         0.03451    0.00777   -0.01223    0.00735
F6    4    0.276138    0.485267    0.485740    11.00000    0.03288    0.02489 =
         0.04656    0.00504    0.00093   -0.00681
C4    1    0.282218    0.368627    0.575498    11.00000    0.02724    0.02957 =
         0.02589    0.00082   -0.00757   -0.00375
F7    4    0.192069    0.365526    0.617271    11.00000    0.04152    0.05373 =
         0.02021    0.00212   -0.00013   -0.00933
F8    4    0.358339    0.417819    0.593771    11.00000    0.03464    0.03950 =
         0.03396   -0.00365   -0.01510   -0.00998
F9    4    0.351878    0.315223    0.582795    11.00000    0.03639    0.03425 =
         0.04107    0.00787   -0.02038    0.00467
RESI 0

C34   1    0.369665    0.548738    0.213204    11.00000    0.01994    0.02269 =
         0.03071   -0.00484   -0.00284    0.00098
AFIX  43
H34   2    0.340281    0.506516    0.203864    11.00000   -1.20000
AFIX   0
C33   1    0.380572    0.569534    0.277916    11.00000    0.01591    0.03229 =
         0.02440    0.00127   -0.00199    0.00401
C32   1    0.425167    0.631368    0.290538    11.00000    0.01547    0.03224 =
         0.02654   -0.00931   -0.00393    0.00567
AFIX  43
H32   2    0.435578    0.645829    0.334516    11.00000   -1.20000
AFIX   0
C35   1    0.400672    0.588153    0.161619    11.00000    0.01798    0.02837 =
         0.02231   -0.00164   -0.00588    0.00286
C30   1    0.443788    0.649855    0.176356    11.00000    0.02044    0.02454 =
         0.02611    0.00459   -0.00252    0.00401
AFIX  43
H30   2    0.466171    0.677162    0.141963    11.00000   -1.20000
AFIX   0
C36   1    0.383691    0.565120    0.092080    11.00000    0.04269    0.03617 =
         0.02263   -0.00271   -0.00386    0.00022
AFIX 137
H36A  2    0.294983    0.571711    0.075280    11.00000   -1.50000
H36B  2    0.404472    0.519473    0.090414    11.00000   -1.50000
H36C  2    0.440549    0.589164    0.065221    11.00000   -1.50000
AFIX   0
C31   1    0.454825    0.672455    0.240676    11.00000    0.01662    0.02502 =
         0.03552   -0.00438   -0.00385    0.00398
C37   1    0.341175    0.527442    0.332525    11.00000    0.02655    0.04351 =
         0.02829    0.00157    0.00199   -0.00430
AFIX 137
H37A  2    0.409026    0.526879    0.367904    11.00000   -1.50000
H37B  2    0.326240    0.483863    0.316094    11.00000   -1.50000
H37C  2    0.262614    0.544185    0.349124    11.00000   -1.50000
AFIX   0
C38   1    0.494357    0.740462    0.255556    11.00000    0.03642    0.02775 =
         0.04826   -0.00738   -0.00694   -0.00119
AFIX 137
H38A  2    0.530211    0.759324    0.217152    11.00000   -1.50000
H38B  2    0.558782    0.741026    0.292562    11.00000   -1.50000
H38C  2    0.419801    0.765287    0.266635    11.00000   -1.50000
AFIX   0

C21   1    0.721930    0.447966    0.167573    11.00000    0.02914    0.02304 =
         0.02623   -0.00349   -0.00161    0.00707
C20   1    0.838313    0.474750    0.190360    11.00000    0.02356    0.03006 =
         0.02896    0.00425    0.00462    0.00682
AFIX  43
H20   2    0.894242    0.490701    0.159797    11.00000   -1.20000
AFIX   0
C23   1    0.673437    0.429167    0.280513    11.00000    0.03006    0.01954 =
         0.02968    0.00331    0.00334    0.00513
C25   1    0.874315    0.478622    0.256922    11.00000    0.01989    0.02796 =
         0.03490    0.00290   -0.00742    0.00377
C22   1    0.640971    0.425703    0.213109    11.00000    0.02695    0.02177 =
         0.03408   -0.00071   -0.00322    0.00166
AFIX  43
H22   2    0.561236    0.407591    0.198150    11.00000   -1.20000
AFIX   0
C28   1    0.685695    0.443524    0.095276    11.00000    0.05009    0.03690 =
         0.02589   -0.00659   -0.00462    0.00298
AFIX 137
H28A  2    0.682347    0.486573    0.076305    11.00000   -1.50000
H28B  2    0.601811    0.423187    0.088199    11.00000   -1.50000
H28C  2    0.749359    0.417923    0.074304    11.00000   -1.50000
AFIX   0
C27   1    0.588444    0.401801    0.328950    11.00000    0.04275    0.04038 =
         0.03936    0.00853    0.00627   -0.00207
AFIX 137
H27A  2    0.582747    0.431787    0.365359    11.00000   -1.50000
H27B  2    0.623785    0.361075    0.345554    11.00000   -1.50000
H27C  2    0.503140    0.394619    0.307658    11.00000   -1.50000
AFIX   0
C24   1    0.790672    0.456425    0.301111    11.00000    0.03203    0.02706 =
         0.02321    0.00020   -0.00473    0.00887
AFIX  43
H24   2    0.813839    0.459877    0.346614    11.00000   -1.20000
AFIX   0
C26   1    1.002679    0.505455    0.281399    11.00000    0.02870    0.06240 =
         0.05033    0.00721   -0.01294   -0.00257
AFIX 137
H26A  2    1.045991    0.522770    0.244499    11.00000   -1.50000
H26B  2    1.054788    0.471367    0.302480    11.00000   -1.50000
H26C  2    0.990410    0.539611    0.313075    11.00000   -1.50000
AFIX   0

RESI 3 CCF3
PART 1 21
O1    3    0.158667    0.209735    0.528289    21.00000    0.01906    0.01841 =
         0.02232   -0.00048   -0.00201    0.00542
C1    1    0.198943    0.149659    0.543690    21.00000    0.01966    0.01445 =
         0.02505    0.00297   -0.00485   -0.00262
C2    1    0.283616    0.124877    0.490298    21.00000    0.04441    0.02611 =
         0.02814    0.00191   -0.00046    0.00941
F1    4    0.355734    0.074955    0.510701    21.00000    0.04692    0.02803 =
         0.02775   -0.00424   -0.00150    0.01266
F2    4    0.359569    0.170581    0.471500    21.00000    0.04035    0.03708 =
         0.04504    0.00710    0.01773    0.01203
F3    4    0.212160    0.104122    0.438122    21.00000    0.07969    0.03919 =
         0.02922   -0.01186   -0.02113    0.02455
C3    1    0.086481    0.103524    0.549651    21.00000    0.02230    0.03078 =
         0.06367    0.01339   -0.00663    0.00113
F4    4    0.117769    0.041493    0.547402    21.00000    0.03416    0.02627 =
         0.10379    0.01822   -0.00822   -0.00109
F5    4   -0.005292    0.114032    0.502020    21.00000    0.03121    0.03526 =
         0.09603    0.00789   -0.03310   -0.00806
F6    4    0.032484    0.113046    0.606805    21.00000    0.04122    0.05245 =
         0.08368    0.03203    0.03092    0.00272
C4    1    0.280570    0.152838    0.609879    21.00000    0.03668    0.02732 =
         0.02391    0.00593   -0.00753    0.00775
F7    4    0.222258    0.187906    0.652581    21.00000    0.06565    0.04824 =
         0.01661    0.00451   -0.00443    0.02236
F8    4    0.298152    0.094451    0.636939    21.00000    0.05001    0.03167 =
         0.02796    0.01223   -0.00895    0.01291
F9    4    0.394904    0.177208    0.602381    21.00000    0.02819    0.03940 =
         0.04522   -0.00375   -0.01895    0.00176
PART 0
RESI 0

RESI 4 CCF3
PART 1 31
O1    3    0.084178    0.235097    0.400521    31.00000    0.02005    0.05589 =
         0.01021   -0.00205   -0.00457    0.00519
C1    1    0.036336    0.231592    0.337202    31.00000    0.01677    0.03074 =
         0.01635    0.00074   -0.00826    0.00531
C2    1    0.150851    0.233097    0.294397    31.00000    0.03590    0.03932 =
         0.01757   -0.00456   -0.00129    0.00599
F1    4    0.120360    0.212478    0.233250    31.00000    0.04547    0.05601 =
         0.01237   -0.00590    0.00055    0.00303
F2    4    0.245830    0.195045    0.318995    31.00000    0.02918    0.05659 =
         0.02913   -0.00684   -0.00242    0.01575
F3    4    0.196892    0.291921    0.290377    31.00000    0.04330    0.04762 =
         0.02847    0.00190    0.00567   -0.01138
C3    1   -0.052789    0.288734    0.318486    31.00000    0.03222    0.03932 =
         0.01958   -0.00334   -0.00522    0.01175
F4    4   -0.005885    0.342918    0.346439    31.00000    0.05151    0.02869 =
         0.02859   -0.00345   -0.01161    0.01251
F5    4   -0.067224    0.300689    0.254132    31.00000    0.04171    0.04043 =
         0.01866   -0.00008   -0.00444    0.01353
F6    4   -0.169061    0.279976    0.339263    31.00000    0.02450    0.06334 =
         0.03134    0.00000   -0.00474    0.01687
C4    1   -0.039030    0.168509    0.325685    31.00000    0.03146    0.04144 =
         0.02338   -0.00221   -0.01038   -0.00324
F7    4   -0.115722    0.158454    0.373296    31.00000    0.03058    0.05077 =
         0.03143   -0.00273   -0.00135   -0.01743
F8    4   -0.109987    0.168494    0.268507    31.00000    0.04711    0.04982 =
         0.03122   -0.00005   -0.02031   -0.00690
F9    4    0.041057    0.118717    0.324925    31.00000    0.05423    0.03249 =
         0.03747   -0.00724   -0.01009    0.00480
PART 0
RESI 0

HKLF 4




REM  p21c in P2(1)/c
REM wR2 = 0.1012, GooF = S = 0.998, Restrained GooF = 0.851 for all data
REM R1 = 0.0400 for 7085 Fo > 4sig(Fo) and 0.0794 for all 10786 data
REM 945 parameters refined using 4641 restraints

END  
     
WGHT      0.0493      0.0000 

REM Highest difference peak  0.405,  deepest hole -0.690,  1-sigma level  0.073
Q1    1   0.6920  0.6019  0.2175  11.00000  0.05    0.40
Q2    1   0.7506  0.5648  0.2192  11.00000  0.05    0.36
Q3    1   0.6808  0.5287  0.2071  11.00000  0.05    0.36
Q4    1   0.2759  0.3713  0.4867  11.00000  0.05    0.33
Q5    1   0.6821  0.3935  0.0902  11.00000  0.05    0.33
Q6    1   0.5919  0.5882  0.2736  11.00000  0.05    0.32
Q7    1   0.6394  0.4372  0.3132  11.00000  0.05    0.31
Q8    1   0.1837  0.3572  0.4988  11.00000  0.05    0.31
Q9    1  -0.1806  0.3163  0.5158  11.00000  0.05    0.31
Q10   1   0.7438  0.4666  0.0658  11.00000  0.05    0.30
Q11   1   0.5867  0.6685  0.2338  11.00000  0.05    0.30
Q12   1   0.5937  0.5393  0.2789  11.00000  0.05    0.30
Q13   1  -0.1284  0.2540  0.4775  11.00000  0.05    0.30
Q14   1   0.1385  0.3034  0.4745  11.00000  0.05    0.30
Q15   1   0.5871  0.5160  0.2607  11.00000  0.05    0.29
Q16   1  -0.1358  0.2692  0.5126  11.00000  0.05    0.29
Q17   1   0.3484  0.5657  0.2462  11.00000  0.05    0.29
Q18   1   0.8792  0.5409  0.3473  11.00000  0.05    0.28
Q19   1  -0.1121  0.2227  0.4996  11.00000  0.05    0.28
Q20   1  -0.1715  0.2798  0.5599  11.00000  0.05    0.28
