TITL p21c in P2(1)/c
CELL 0.71073 10.5086 20.9035 20.5072 90 94.13 90
ZERR 4 0.0003 0.0005 0.0005 0 0.001 0
LATT 1
SYMM -X,0.5+Y,0.5-Z
SFAC  C H O F Al Ga
UNIT 136 96 16 144 4 4
LIST 6 ! automatically inserted. Change 6 to 4 for CHECKCIF!!
 
L.S.  10
PLAN  20
TEMP -173.18
BOND $H
fmap 2
 
WGHT    0.049400    0.393100
FVAR       0.08682   0.47958   0.55591
GA1   6    0.639512   0.561734   0.237759  11.00000   0.02407   0.02505 =
      0.02490   0.00000  -0.00156   0.00159
AL1   5    0.064276   0.260189   0.478726  11.00000   0.01606   0.01969 =
      0.01367  -0.00009  -0.00219   0.00122
O1    3    0.120485   0.336579   0.494128  11.00000   0.01594   0.02180 =
      0.02319  -0.00108  -0.00219  -0.00163
O2    3   -0.097364   0.260911   0.489310  11.00000   0.01702   0.02609 =
      0.01666  -0.00411   0.00040   0.00074
F10   4   -0.362544   0.278261   0.447768  11.00000   0.02260   0.04194 =
      0.02734   0.00101  -0.01012   0.00180
F11   4   -0.404353   0.257816   0.547037  11.00000   0.02060   0.04881 =
      0.03553  -0.00160   0.00539  -0.00222
F12   4   -0.301402   0.189572   0.492527  11.00000   0.02696   0.02722 =
      0.04222  -0.00396  -0.00180  -0.00531
F13   4   -0.175179   0.202434   0.610078  11.00000   0.04030   0.04368 =
      0.02843   0.01321   0.00117   0.00374
F14   4   -0.031511   0.275536   0.616634  11.00000   0.02281   0.05776 =
      0.02206  -0.00633  -0.00805   0.00744
F15   4   -0.222321   0.297026   0.641458  11.00000   0.03247   0.06798 =
      0.01960  -0.00709   0.00371   0.01567
F16   4   -0.313263   0.377295   0.540556  11.00000   0.02364   0.03297 =
      0.04453  -0.00659  -0.00011   0.00939
F17   4   -0.189451   0.376073   0.461257  11.00000   0.04569   0.02831 =
      0.03491   0.00605   0.00451   0.00194
F18   4   -0.110409   0.386669   0.560076  11.00000   0.02687   0.03291 =
      0.04597  -0.01529  -0.00146  -0.00428
C5    1   -0.187333   0.282839   0.527508  11.00000   0.01739   0.02258 =
      0.01762  -0.00031  -0.00193   0.00126
C6    1   -0.315936   0.251685   0.503993  11.00000   0.02201   0.02831 =
      0.02375   0.00043   0.00083   0.00065
C7    1   -0.154290   0.264425   0.600374  11.00000   0.02011   0.03750 =
      0.02236  -0.00167  -0.00017   0.00587
C8    1   -0.201083   0.356751   0.522198  11.00000   0.02165   0.02903 =
      0.02943  -0.00589   0.00038   0.00038
C1    1    0.223152   0.375180   0.503830  11.00000   0.01561   0.02226 =
      0.02096   0.00106  -0.00337  -0.00060
C2    1    0.325767   0.359154   0.456114  11.00000   0.02172   0.02859 =
      0.03023  -0.00079  -0.00035  -0.00062
F1    4    0.290703   0.379736   0.395757  11.00000   0.03940   0.04638 =
      0.02530   0.00199   0.00754  -0.00336
F2    4    0.342792   0.296331   0.451999  11.00000   0.02512   0.03092 =
      0.04942  -0.00948   0.00449   0.00467
F3    4    0.439098   0.385306   0.473518  11.00000   0.01737   0.04363 =
      0.05138  -0.00537   0.00367  -0.00642
C3    1    0.178842   0.445132   0.492625  11.00000   0.02209   0.02555 =
      0.02744   0.00159  -0.00212  -0.00068
F4    4    0.100259   0.449629   0.439084  11.00000   0.03701   0.03262 =
      0.03455   0.00776  -0.01226   0.00738
F5    4    0.116000   0.466246   0.542727  11.00000   0.03125   0.02818 =
      0.03893  -0.00877   0.00243   0.00365
F6    4    0.276146   0.485263   0.485740  11.00000   0.03292   0.02495 =
      0.04649   0.00505   0.00097  -0.00695
C4    1    0.282210   0.368638   0.575495  11.00000   0.02746   0.02974 =
      0.02601   0.00061  -0.00763  -0.00362
F7    4    0.358326   0.417816   0.593762  11.00000   0.03446   0.03946 =
      0.03398  -0.00364  -0.01512  -0.00987
F8    4    0.351896   0.315201   0.582798  11.00000   0.03626   0.03416 =
      0.04125   0.00791  -0.02038   0.00478
F9    4    0.192048   0.365519   0.617280  11.00000   0.04144   0.05374 =
      0.02012   0.00217  -0.00006  -0.00930
C34   1    0.369669   0.548729   0.213207  11.00000   0.02003   0.02259 =
      0.03060  -0.00487  -0.00285   0.00107
AFIX  43
H34   2    0.340277   0.506506   0.203876  11.00000  -1.20000 
AFIX   0
C33   1    0.380597   0.569532   0.277911  11.00000   0.01599   0.03266 =
      0.02424   0.00128  -0.00203   0.00410
C32   1    0.425179   0.631357   0.290542  11.00000   0.01544   0.03214 =
      0.02646  -0.00924  -0.00392   0.00565
AFIX  43
H32   2    0.435609   0.645808   0.334523  11.00000  -1.20000 
AFIX   0
C35   1    0.400662   0.588132   0.161617  11.00000   0.01803   0.02838 =
      0.02223  -0.00157  -0.00595   0.00268
C30   1    0.443744   0.649854   0.176357  11.00000   0.02051   0.02439 =
      0.02611   0.00462  -0.00255   0.00390
AFIX  43
H30   2    0.466085   0.677165   0.141960  11.00000  -1.20000 
AFIX   0
C36   1    0.383701   0.565135   0.092086  11.00000   0.04290   0.03609 =
      0.02268  -0.00276  -0.00387   0.00015
AFIX 137
H36A  2    0.294985   0.571711   0.075291  11.00000  -1.50000 
H36B  2    0.404524   0.519494   0.090397  11.00000  -1.50000 
H36C  2    0.440534   0.589206   0.065237  11.00000  -1.50000 
AFIX   0
C31   1    0.454805   0.672459   0.240676  11.00000   0.01664   0.02495 =
      0.03548  -0.00436  -0.00393   0.00396
C37   1    0.341162   0.527435   0.332501  11.00000   0.02648   0.04348 =
      0.02836   0.00160   0.00203  -0.00417
AFIX 137
H37A  2    0.409141   0.526721   0.367812  11.00000  -1.50000 
H37B  2    0.325884   0.483900   0.316017  11.00000  -1.50000 
H37C  2    0.262787   0.544279   0.349212  11.00000  -1.50000 
AFIX   0
C38   1    0.494343   0.740493   0.255543  11.00000   0.03663   0.02806 =
      0.04801  -0.00738  -0.00694  -0.00109
AFIX 137
H38A  2    0.530058   0.759370   0.217108  11.00000  -1.50000 
H38B  2    0.558876   0.741061   0.292500  11.00000  -1.50000 
H38C  2    0.419813   0.765302   0.266690  11.00000  -1.50000 
AFIX   0
 
C21   1    0.721934   0.447953   0.167570  11.00000   0.02897   0.02293 =
      0.02626  -0.00357  -0.00155   0.00703
C20   1    0.838305   0.474768   0.190354  11.00000   0.02349   0.03007 =
      0.02904   0.00419   0.00449   0.00696
AFIX  43
H20   2    0.894203   0.490746   0.159790  11.00000  -1.20000 
AFIX   0
C23   1    0.673420   0.429166   0.280504  11.00000   0.03010   0.01951 =
      0.02967   0.00332   0.00335   0.00510
C25   1    0.874325   0.478627   0.256918  11.00000   0.01987   0.02780 =
      0.03497   0.00288  -0.00745   0.00373
C22   1    0.641020   0.425695   0.213115  11.00000   0.02696   0.02168 =
      0.03414  -0.00080  -0.00320   0.00174
AFIX  43
H22   2    0.561299   0.407568   0.198156  11.00000  -1.20000 
AFIX   0
C28   1    0.685655   0.443534   0.095289  11.00000   0.05025   0.03669 =
      0.02590  -0.00665  -0.00462   0.00298
AFIX 137
H28A  2    0.673315   0.486665   0.077195  11.00000  -1.50000 
H28B  2    0.753794   0.421924   0.073604  11.00000  -1.50000 
H28C  2    0.606256   0.419140   0.088049  11.00000  -1.50000 
AFIX   0
C27   1    0.588439   0.401813   0.328954  11.00000   0.04259   0.04055 =
      0.03960   0.00857   0.00627  -0.00201
AFIX 137
H27A  2    0.582733   0.431814   0.365350  11.00000  -1.50000 
H27B  2    0.503136   0.394616   0.307666  11.00000  -1.50000 
H27C  2    0.623795   0.361096   0.345575  11.00000  -1.50000 
AFIX   0
C24   1    0.790635   0.456434   0.301105  11.00000   0.03211   0.02720 =
      0.02308   0.00010  -0.00475   0.00899
AFIX  43
H24   2    0.813774   0.459901   0.346610  11.00000  -1.20000 
AFIX   0
C26   1    1.002659   0.505433   0.281383  11.00000   0.02874   0.06260 =
      0.05036   0.00705  -0.01296  -0.00262
AFIX 137
H26A  2    1.045715   0.523017   0.244525  11.00000  -1.50000 
H26B  2    0.990451   0.539382   0.313293  11.00000  -1.50000 
H26C  2    1.054976   0.471270   0.302184  11.00000  -1.50000 
AFIX   0
 
SAME_CF3 O1 > F9
SIMU_CF3 O1 > F9
RIGU_CF3 O1 > F9
EADP O1_1 O1_2
EADP C1_1 C1_2
SADI Al1_0 O1_1 Al1_0 O1_2
SADI Al1_0 C1_1 Al1_0 C1_2
RESI 1 CF3
SAME_0 O1 C1 > F9
PART 1 21
O1    3    0.157833   0.209958   0.529746  21.00000   0.02163   0.02194 =
      0.01948   0.00167  -0.00365   0.00467
C1    1    0.198654   0.149799   0.543640  21.00000   0.02048   0.01971 =
      0.02263   0.00171  -0.00447   0.00291
C2    1    0.283315   0.125067   0.490359  21.00000   0.04200   0.02801 =
      0.02757   0.00356  -0.00007   0.00959
F1    4    0.356910   0.075486   0.511275  21.00000   0.04634   0.02884 =
      0.02914  -0.00375  -0.00207   0.01376
F2    4    0.359481   0.170827   0.471752  21.00000   0.04143   0.03507 =
      0.04271   0.00505   0.01615   0.01085
F3    4    0.212215   0.104161   0.438090  21.00000   0.07680   0.03891 =
      0.02917  -0.01114  -0.01968   0.02359
C3    1    0.086638   0.103699   0.549797  21.00000   0.02368   0.03282 =
      0.06149   0.01368  -0.00549   0.00230
F4    4    0.117280   0.041564   0.547355  21.00000   0.03440   0.02916 =
      0.09994   0.01753  -0.00555  -0.00068
F5    4   -0.004883   0.114248   0.501508  21.00000   0.03040   0.03657 =
      0.08836   0.01013  -0.02723  -0.00882
F6    4    0.032270   0.112916   0.606657  21.00000   0.04073   0.05090 =
      0.08079   0.02875   0.02681   0.00097
C4    1    0.280620   0.152756   0.609990  21.00000   0.03528   0.02773 =
      0.02383   0.00560  -0.00830   0.00757
F7    4    0.221481   0.187997   0.652569  21.00000   0.06144   0.04871 =
      0.01776   0.00329  -0.00621   0.02050
F8    4    0.298385   0.094442   0.636867  21.00000   0.04889   0.03176 =
      0.02829   0.01235  -0.00904   0.01241
F9    4    0.394804   0.177207   0.602419  21.00000   0.02848   0.03897 =
      0.04325  -0.00340  -0.01752   0.00245
PART 0
RESI 0
 
rem rem dsr put OC(CF3)3 with O1 C1 C2 C3 C4 on O1_1 C1_1 q7 q8 q9 resi CF3 =
rem  part 2 occ -21
 
rem the following was inserted by DSR:
SADI_CF3 C1 C2 C1 C3 C1 C4
SADI_CF3 C2 C3 C3 C4 C2 C4
SADI_CF3 O1 C2 O1 C3 O1 C4
SADI_CF3 F1 C2 F2 C2 F3 C2 F4 C3 F5 C3 F6 C3 F7 C4 F8 C4 F9 C4
SADI_CF3 F1 F2 F2 F3 F3 F1 F4 F5 F5 F6 F6 F4 F7 F8 F8 F9 F9 F7
SIMU_CF3 O1 > F9
RIGU_CF3 O1 > F9
RESI 2 CF3
PART 2 -21
O1    3    0.141384   0.206400   0.531319 -21.00000   0.02163   0.02194 =
      0.01948   0.00167  -0.00365   0.00467
C1    1    0.183110   0.146772   0.545766 -21.00000   0.02048   0.01971 =
      0.02263   0.00171  -0.00447   0.00291
C2    1    0.192856   0.140461   0.621293 -21.00000   0.04166   0.02891 =
      0.02413   0.00653  -0.00756   0.00180
F1    4    0.245951   0.192635   0.649286 -21.00000   0.05023   0.03773 =
      0.03055  -0.00436  -0.01611  -0.00386
F2    4    0.264070   0.090232   0.642313 -21.00000   0.06003   0.04414 =
      0.03939   0.01562  -0.01197   0.01449
F3    4    0.078386   0.131948   0.643419 -21.00000   0.05513   0.04830 =
      0.03392   0.00999   0.01755   0.00336
C3    1    0.091620   0.095073   0.515554 -21.00000   0.02724   0.02871 =
      0.03723  -0.00107  -0.00513   0.00135
F4    4    0.108044   0.085497   0.452546 -21.00000   0.05361   0.03825 =
      0.03410  -0.01194  -0.00919   0.00588
F5    4   -0.030076   0.111929   0.520499 -21.00000   0.02214   0.04246 =
      0.05906  -0.00403  -0.00531  -0.00401
F6    4    0.108989   0.038915   0.546081 -21.00000   0.05088   0.02342 =
      0.04972   0.00018  -0.00844  -0.00455
C4    1    0.316445   0.136859   0.519972 -21.00000   0.03055   0.02838 =
      0.05013   0.01158   0.00599   0.00496
F7    4    0.319546   0.157305   0.457945 -21.00000   0.04383   0.04250 =
      0.04216   0.01419   0.01752   0.01257
F8    4    0.352990   0.075276   0.520883 -21.00000   0.02929   0.03511 =
      0.05942   0.01427   0.01025   0.01905
F9    4    0.405910   0.168156   0.556650 -21.00000   0.02314   0.03821 =
      0.08855   0.00427  -0.00562  -0.00248
PART 0
RESI 0
rem End of DSR entry
 
SAME_0 O1 C1 > F9
RESI 3 CF3
PART 1 31
O1    3    0.083911   0.234239   0.400357  31.00000   0.02079   0.03299 =
      0.01337  -0.00314  -0.00309   0.00501
C1    1    0.035727   0.231753   0.337090  31.00000   0.01964   0.03342 =
      0.01400  -0.00341  -0.00470   0.00442
C2    1    0.150685   0.233051   0.294272  31.00000   0.03410   0.04087 =
      0.01762  -0.00426  -0.00204   0.00617
F1    4    0.122136   0.212092   0.233244  31.00000   0.04152   0.05840 =
      0.01290  -0.00654   0.00058   0.00163
F2    4    0.244473   0.194911   0.320303  31.00000   0.02689   0.05672 =
      0.02752  -0.00090  -0.00117   0.01375
F3    4    0.196793   0.291962   0.290368  31.00000   0.04294   0.04776 =
      0.02832   0.00135   0.00570  -0.01090
C3    1   -0.052681   0.288615   0.318600  31.00000   0.03239   0.03964 =
      0.01986  -0.00367  -0.00530   0.01107
F4    4   -0.005786   0.343122   0.346052  31.00000   0.05081   0.02911 =
      0.02935  -0.00416  -0.01061   0.01326
F5    4   -0.067340   0.299266   0.254102  31.00000   0.04486   0.05043 =
      0.01896  -0.00100  -0.00660   0.01870
F6    4   -0.169123   0.279967   0.339278  31.00000   0.02499   0.06173 =
      0.03140   0.00017  -0.00485   0.01700
C4    1   -0.039075   0.168528   0.325693  31.00000   0.03169   0.04056 =
      0.02376  -0.00232  -0.00992  -0.00315
F7    4   -0.116676   0.158684   0.373279  31.00000   0.03274   0.04930 =
      0.03268  -0.00059  -0.00179  -0.01669
F8    4   -0.109705   0.167995   0.268733  31.00000   0.04554   0.04815 =
      0.03252  -0.00157  -0.02027  -0.00451
F9    4    0.040990   0.118728   0.324938  31.00000   0.05241   0.03319 =
      0.03751  -0.00709  -0.00966   0.00462
PART 0
RESI 0
rem rem dsr put OC(CF3)3 with O1 C1 C2 C3 C4 on O4 C13 q5 q4 q6 part 2 occ -31
rem  part 2 occ -31
 
rem the following was inserted by DSR:
 
SAME_0 O1 C1 > F9
EADP O1_3 O1_4
EADP C1_3 C1_4
SADI Al1_0 O1_3 Al1_0 O1_4
SADI Al1_0 C1_3 Al1_0 C1_4
RESI 4 CF3
PART 2 -31
O1    3    0.079713   0.236539   0.399565 -31.00000   0.02079   0.03299 =
      0.01337  -0.00314  -0.00309   0.00501
C1    1    0.029943   0.234223   0.336764 -31.00000   0.01964   0.03342 =
      0.01400  -0.00341  -0.00470   0.00442
C2    1    0.018551   0.302407   0.307545 -31.00000   0.04689   0.03976 =
      0.01854   0.00029  -0.00799   0.00514
F1    4   -0.032552   0.340464   0.350767 -31.00000   0.06703   0.04180 =
      0.03396  -0.00565  -0.01207   0.02336
F2    4   -0.057915   0.303114   0.252454 -31.00000   0.07224   0.05199 =
      0.02543   0.00605  -0.02227   0.01061
F3    4    0.130378   0.325385   0.293417 -31.00000   0.06115   0.04378 =
      0.03511   0.00782  -0.00153  -0.01107
C3    1    0.121659   0.194259   0.297943 -31.00000   0.02948   0.04625 =
      0.01656  -0.00440  -0.00065   0.00874
F4    4    0.112036   0.131890   0.311425 -31.00000   0.05551   0.03922 =
      0.03361  -0.00552   0.00218   0.01844
F5    4    0.243824   0.210645   0.313418 -31.00000   0.02313   0.06945 =
      0.02566  -0.00253   0.00498   0.01104
F6    4    0.099762   0.200191   0.233445 -31.00000   0.04169   0.06610 =
      0.01641  -0.01080   0.00134   0.01409
C4    1   -0.102981   0.202176   0.332338 -31.00000   0.02834   0.06001 =
      0.01536  -0.00642  -0.00401  -0.00682
F7    4   -0.104533   0.152024   0.372982 -31.00000   0.03860   0.06981 =
      0.04087   0.01032  -0.00548  -0.01667
F8    4   -0.135137   0.179365   0.271961 -31.00000   0.02827   0.07339 =
      0.02304  -0.01468  -0.00936  -0.00957
F9    4   -0.193971   0.242489   0.347017 -31.00000   0.02054   0.08111 =
      0.03097  -0.01423  -0.00668   0.00705
PART 0
RESI 0
rem End of DSR entry
 
HKLF 4
 
REM  p21c in P2(1)/c
REM R1 =  0.0402 for    7085 Fo > 4sig(Fo)  and  0.0797 for all   10786 data
REM    921 parameters refined using   2867 restraints
 
END 
 
WGHT      0.0494      0.0091 

REM Highest difference peak  0.407,  deepest hole -0.688,  1-sigma level  0.073
Q1    1    0.691700   0.601900   0.217700  11.00000   0.05000      0.41 
Q2    1    0.257300   0.431100   0.787700  11.00000   0.05000      0.36 
Q3    1    0.680700   0.528500   0.207200  11.00000   0.05000      0.36 
Q4    1    0.740800   0.470400   0.066400  11.00000   0.05000      0.34 
Q5    1    0.275900   0.371400   0.487100  11.00000   0.05000      0.33 
Q6    1    0.686000   0.392800   0.090300  11.00000   0.05000      0.33 
Q7    1    0.639500   0.437200   0.313100  11.00000   0.05000      0.32 
Q8    1    0.592300   0.588400   0.273600  11.00000   0.05000      0.32 
Q9    1    0.183300   0.357000   0.498700  11.00000   0.05000      0.31 
Q10   1   -0.180600   0.315800   0.515800  11.00000   0.05000      0.30 
Q11   1    0.586600   0.668500   0.233700  11.00000   0.05000      0.30 
Q12   1   -0.128700   0.253900   0.477400  11.00000   0.05000      0.30 
Q13   1    0.594200   0.539700   0.279100  11.00000   0.05000      0.30 
Q14   1   -0.134600   0.267000   0.511000  11.00000   0.05000      0.30 
Q15   1    0.138000   0.303400   0.474900  11.00000   0.05000      0.29 
Q16   1    0.348800   0.565500   0.246200  11.00000   0.05000      0.29 
Q17   1    0.587100   0.515700   0.260700  11.00000   0.05000      0.29 
Q18   1    0.879500   0.541000   0.347300  11.00000   0.05000      0.28 
Q19   1   -0.171500   0.279600   0.559500  11.00000   0.05000      0.28 
Q20   1   -0.111800   0.222400   0.499600  11.00000   0.05000      0.28 
