CELL  0.71073   9.3551   9.3551   9.3670   90.000   90.000   90.000
ZERR    8.00   0.00030   0.00030   0.00030   0.0000   0.0000   0.0000
LATT -1
SYMM -X, -Y, Z
SYMM Y, -X, -Z
SYMM -Y, X, -Z
SFAC C O F AL FE
UNIT 8 8 8 8 8
TEMP -173.130
L.S. 10
BOND
acta
LIST 4
FMAP 2
PLAN 20
RIGU
WGHT    0.100000
BASF   0.30067   0.28100
FVAR      23.42765 0.8
FE1   5    0.000000    0.000000    0.000000    10.25000    0.00778    0.00778 =
         0.01455    0.00000    0.00000    0.00000
 
rem dsr put OC(CF3)3 with O1 C1 C2 F1 on q13 C1_5a C2_5a q1 part 2 occ =
 -41 RESI
SIMU_CCF3 O1 > F9
RIGU_CCF3 O1 > F9
resi   1 CCF3
SADI_CCF3 C1 C2 C1 C3 C1 C4
SADI_CCF3 F1 C2 F2 C2 F3 C2 F4 C3 F5 C3 F6 C3 F7 C4 F8 C4 F9 C4
SADI_CCF3 0.04 C2 C3 C3 C4 C2 C4
SADI_CCF3 0.04 O1 C2 O1 C3 O1 C4
SADI_CCF3 0.04 F1 F2 F2 F3 F3 F1 F4 F5 F5 F6 F6 F4 F7 F8 F8 F9 F9 F7
SADI_CCF3 0.1 F1 C1 F2 C1 F3 C1 F4 C1 F5 C1 F6 C1 F7 C1 F8 C1 F9 C1
part 1 21
O1    3    0.584527    0.749093    0.406892    21.00000    0.00952    0.02288 =
         0.0145     -0.00284    0.00004    0.00162
C1    1    0.462797    0.766414    0.415951    21.00000    0.01038    0.01899 =
         0.01511    0.00303    0.00258    0.00047
PART 0
RESI 0

HKLF 5
  
END 