REM Solution 1  R1  0.201  Rweak  0.020,  Alpha = 0.0683  in P2(1)/n
REM Formula:  C25 N2 O21 F39 Al2
TITL NO_PF-F-PF_twin4_XPREP in P2(1)/n
CELL  0.71073  10.6960  18.3669  22.3705   90.000   95.049   90.000
ZERR   52.00   0.00190   0.00340   0.00390   0.0000   0.0112   0.0000
LATT  1
SYMM 1/2-X, 1/2+Y, 1/2-Z
SFAC  C  N  O  F  AL
UNIT 96 4 28 220 8
TEMP -173.160
L.S.  8
BOND
LIST 6
FMAP 2
PLAN 20
RIGU
SIMU
WGHT    0.000100   73.845512
BASF   0.94335
FVAR       0.20453   0.78264   0.83433   0.78997
AL01  5    0.758356    0.738569    0.587636    11.00000    0.01202    0.01413 =
         0.00880    0.00092    0.00012    0.00082
O1    3    0.492089    0.457919    0.757120    11.00000    0.04981    0.04773 =
         0.03974    0.00230    0.00288    0.00245
AL02 5 0.738770 0.759895 0.430208 11.00000 0.01008 0.01475 =
         0.00988    0.00042    0.00081    0.00214
N2    2    0.511466    0.414934    0.732125    11.00000    0.02509    0.04583 =
         0.03631   -0.00328   -0.00865    0.00104
F003  4    0.751370    0.750554    0.509312    11.00000    0.01578    0.01734 =
         0.01003    0.00050    0.00142    0.00056
F10   4    0.884515    0.663258    0.280782    11.00000    0.03730    0.05513 =
         0.02541   -0.00107    0.01480   -0.00578
F11   4    0.691906    0.671522    0.299477    11.00000    0.02804    0.03903 =
         0.02065    0.00131   -0.00033    0.00878
F12   4    0.771375    0.566536    0.283214    11.00000    0.04010    0.03885 =
         0.02846   -0.01876   -0.00065    0.00307
F13   4    0.774920    0.501292    0.396292    11.00000    0.05452    0.01500 =
         0.07215    0.00421    0.00630    0.00546
F14   4    0.625699    0.579431    0.380883    11.00000    0.02785    0.02303 =
         0.04593   -0.00223    0.00632   -0.00497
F15   4    0.744426    0.581621    0.463585    11.00000    0.06076    0.04753 =
         0.02583    0.01332    0.01026   -0.00398
F16   4    0.993214    0.543133    0.349794    11.00000    0.03301    0.04704 =
         0.05320   -0.02303   -0.00035    0.02165
F17   4    0.995225    0.572665    0.442769    11.00000    0.04297    0.06376 =
         0.04242   -0.00252   -0.00821    0.03142
F18   4    1.051074    0.650903    0.378819    11.00000    0.01915    0.04769 =
         0.06512   -0.01852    0.00337    0.00329
F28   4    0.564359    0.519598    0.560032    11.00000    0.04453    0.03394 =
         0.02548   -0.00498   -0.00366   -0.01431
F29   4    0.763673    0.517250    0.580012    11.00000    0.03943    0.02484 =
         0.02795    0.00019    0.00987    0.00095
F30   4    0.642530    0.474447    0.643662    11.00000    0.05603    0.01673 =
         0.02958    0.00423    0.01049   -0.00309
F31   4    0.443138    0.636307    0.596869    11.00000    0.02207    0.07357 =
         0.04016    0.01314    0.00077    0.00687
F32   4    0.459908    0.564901    0.673039    11.00000    0.02397    0.04089 =
         0.03973   -0.00041    0.01405   -0.00955
F33   4    0.510065    0.678530    0.683074    11.00000    0.03364    0.03684 =
         0.04539   -0.00339    0.01708    0.00502
F34   4    0.760037    0.672640    0.710118    11.00000    0.04383    0.02894 =
         0.01994   -0.00569   -0.00370   -0.00885
F35   4    0.844035    0.571881    0.686542    11.00000    0.02240    0.04575 =
         0.02737    0.00274   -0.00154    0.00823
F36   4    0.682397    0.571058    0.737062    11.00000    0.03938    0.03050 =
         0.01837    0.00832    0.00706   -0.00444
F37   4    0.708877    0.996697    0.634848    11.00000    0.04240    0.01817 =
         0.06155    0.00141    0.00024    0.00339
F38   4    0.739340    0.925720    0.560384    11.00000    0.04216    0.04439 =
         0.02735    0.00825    0.00002   -0.00484
F39   4    0.863838    0.921228    0.640817    11.00000    0.02357    0.02717 =
         0.03566   -0.00285    0.00102   -0.00499
F40   4    0.490823    0.923026    0.584097    11.00000    0.03100    0.04854 =
         0.03437   -0.00134   -0.00307    0.01910
F41   4    0.444088    0.837932    0.644310    11.00000    0.01561    0.04437 =
         0.04562   -0.00866    0.00604    0.00088
F42   4    0.496507    0.944236    0.679038    11.00000    0.03018    0.04305 =
         0.04127   -0.01605    0.00288    0.02149
F43   4    0.721016    0.920423    0.741969    11.00000    0.04418    0.02700 =
         0.02559   -0.01440   -0.00265    0.00464
F44   4    0.809454    0.820932    0.718210    11.00000    0.02607    0.02756 =
         0.02066   -0.00278   -0.00062    0.00653
F45   4    0.617831    0.819043    0.739173    11.00000    0.03319    0.04045 =
         0.02455    0.00041    0.00940   -0.00218
O2    3    0.826724    0.691747    0.403247    11.00000    0.01412    0.01806 =
         0.02067   -0.00499    0.00215    0.00298
O4    3    0.691239    0.654375    0.593485    11.00000    0.01949    0.01876 =
         0.01478    0.00298    0.00318   -0.00337
O5    3    0.669028    0.806326    0.614325    11.00000    0.01833    0.01754 =
         0.01927   -0.00392   -0.00047    0.00280
C5    1    0.834028    0.625057    0.377589    11.00000    0.01934    0.01294 =
         0.02102   -0.00542    0.00345    0.00506
C6    1    0.795751    0.631749    0.309169    11.00000    0.02343    0.03264 =
         0.02070   -0.00615    0.00411    0.00228
C7    1    0.744836    0.570778    0.404957    11.00000    0.03067    0.02117 =
         0.03200    0.00465    0.00623    0.00360
C8    1    0.971064    0.597764    0.387365    11.00000    0.02525    0.03627 =
         0.03678   -0.01438   -0.00334    0.01125
C13   1    0.651003    0.604544    0.632514    11.00000    0.01832    0.01583 =
         0.01308    0.00168    0.00457   -0.00277
C14   1    0.655131    0.528330    0.603206    11.00000    0.02990    0.01792 =
         0.01855    0.00079    0.00594   -0.00521
C15   1    0.735748    0.604649    0.692293    11.00000    0.02307    0.02202 =
         0.01562    0.00249    0.00267   -0.00232
C16   1    0.513370    0.622148    0.645951    11.00000    0.02367    0.03168 =
         0.02647    0.00229    0.00722   -0.00105
C17   1    0.659712    0.869775    0.644377    11.00000    0.01973    0.01488 =
         0.02222   -0.00446    0.00122    0.00283
C18   1    0.742806    0.930125    0.619153    11.00000    0.02655    0.02092 =
         0.02869    0.00108    0.00109   -0.00209
C19   1    0.519977    0.893984    0.637862    11.00000    0.01976    0.02786 =
         0.03078   -0.00739    0.00120    0.00535
C20   1    0.700753    0.857829    0.711686    11.00000    0.02468    0.02344 =
         0.02068   -0.00771    0.00414    0.00330
rem the following was inserted by DSR:
 
rem The end of the DSR entry
 
rem dsr put OC(CF3)3 with O1 C1 C2 F1 on q13 C1_5a C2_5a q1 part 2 occ =
 -41 RESI
SIMU_CCF3 O1 > F9
RIGU_CCF3 O1 > F9
resi   1 CCF3
SADI_CCF3 C1 C2 C1 C3 C1 C4
SADI_CCF3 F1 C2 F2 C2 F3 C2 F4 C3 F5 C3 F6 C3 F7 C4 F8 C4 F9 C4
SADI_CCF3 0.04 C2 C3 C3 C4 C2 C4
SADI_CCF3 0.04 O1 C2 O1 C3 O1 C4
SADI_CCF3 0.04 F1 F2 F2 F3 F3 F1 F4 F5 F5 F6 F6 F4 F7 F8 F8 F9 F9 F7
SADI_CCF3 0.1 F1 C1 F2 C1 F3 C1 F4 C1 F5 C1 F6 C1 F7 C1 F8 C1 F9 C1
part 1 21
O1    3    0.584527    0.749093    0.406892    21.00000    0.00952    0.02288 =
         0.01456   -0.00284    0.00004    0.00162
C1    1    0.462797    0.766414    0.415951    21.00000    0.01038    0.01899 =
         0.01511    0.00303    0.00258    0.00047
C2    1    0.383890    0.749340    0.356175    21.00000    0.01633    0.03134 =
         0.01837    0.00068   -0.00011   -0.00031
F1    4    0.371306    0.677236    0.348628    21.00000    0.02914    0.03360 =
         0.02272   -0.00453   -0.00220   -0.00894
F2    4    0.438935    0.774421    0.309729    21.00000    0.02731    0.05808 =
         0.01248    0.00802    0.00044    0.00249
F3    4    0.268969    0.777272    0.354518    21.00000    0.01277    0.05214 =
         0.02963    0.00014   -0.00311    0.00715
C3    1    0.417859    0.718942    0.466802    21.00000    0.02146    0.02312 =
         0.02070    0.00110    0.00945   -0.00161
F4    4    0.293843    0.714156    0.464969    21.00000    0.02213    0.04315 =
         0.02637    0.00382    0.00957   -0.00796
F5    4    0.464930    0.652004    0.463100    21.00000    0.04406    0.02297 =
         0.03481    0.01011    0.01945    0.00416
F6    4    0.459740    0.746292    0.519494    21.00000    0.03475    0.03452 =
         0.01471   -0.00101    0.00402   -0.00112
C4    1    0.451906    0.848511    0.431816    21.00000    0.01576    0.02223 =
         0.02677    0.00189    0.00668    0.00149
F7    4    0.455794    0.889865    0.383323    21.00000    0.04541    0.02115 =
         0.03728    0.00712    0.01501    0.00797
F8    4    0.549783    0.866307    0.470614    21.00000    0.02218    0.02961 =
         0.04300   -0.01535    0.00493   -0.00049
F9    4    0.347071    0.864993    0.456540    21.00000    0.02239    0.03069 =
         0.04498    0.00128    0.01504    0.00849
PART 0
RESI  0
SIMU_CCF3 O1 > F9
RIGU_CCF3 O1 > F9
RESI   2 CCF3
SADI_CCF3 C1 C2 C1 C3 C1 C4
SADI_CCF3 F1 C2 F2 C2 F3 C2 F4 C3 F5 C3 F6 C3 F7 C4 F8 C4 F9 C4
SADI_CCF3 0.04 C2 C3 C3 C4 C2 C4
SADI_CCF3 0.04 O1 C2 O1 C3 O1 C4
SADI_CCF3 0.04 F1 F2 F2 F3 F3 F1 F4 F5 F5 F6 F6 F4 F7 F8 F8 F9 F9 F7
SADI_CCF3 0.1 F1 C1 F2 C1 F3 C1 F4 C1 F5 C1 F6 C1 F7 C1 F8 C1 F9 C1
PART 2 -21
O1    3    0.580325    0.748838    0.411296   -21.00000    0.01407    0.02077 =
         0.01960   -0.00286    0.00243    0.00203
C1    1    0.459586    0.768993    0.414714   -21.00000    0.01461    0.02482 =
         0.02882   -0.00104    0.00592    0.00197
 
C2    1    0.410472    0.809283    0.356119   -21.00000    0.02549    0.03727 =
         0.02873    0.00212    0.00851    0.01506
F1    4    0.454477    0.876818    0.356315   -21.00000    0.05152    0.04073 =
         0.03731    0.00253    0.01678    0.01041
F2    4    0.286352    0.814202    0.351689   -21.00000    0.02763    0.05843 =
         0.03395    0.00817    0.00496    0.01935
F3    4    0.446893    0.774164    0.308993   -21.00000    0.02876    0.04801 =
         0.02804    0.00168    0.00674    0.01990
C3    1    0.379161    0.700631    0.424475   -21.00000    0.02061    0.02984 =
         0.03825   -0.00242    0.01057   -0.00182
F4    4    0.429535    0.652817    0.464361   -21.00000    0.01122    0.03136 =
         0.03802   -0.00075    0.02172   -0.00147
F5    4    0.358695    0.665973    0.372579   -21.00000    0.03541    0.03495 =
         0.04328   -0.00748    0.01524   -0.01784
F6    4    0.269003    0.720429    0.442736   -21.00000    0.01896    0.03695 =
         0.04445   -0.00261    0.01195   -0.00380
C4    1    0.449264    0.822048    0.468052   -21.00000    0.02642    0.02648 =
         0.03232   -0.00348    0.00825    0.00273
F7    4    0.459988    0.786991    0.520225   -21.00000    0.02066    0.03357 =
         0.03362   -0.00322    0.00890    0.00440
F8    4    0.335191    0.852323    0.462282   -21.00000    0.02594    0.01743 =
         0.03776    0.00016    0.01289    0.00280
F9    4    0.531913    0.875837    0.468726   -21.00000    0.03259    0.02752 =
         0.04743   -0.01513    0.01796   -0.00111
PART 0
RESI  0
RESI 3 CCF3
PART 1 31
O1    3    0.911443    0.746609    0.614139    31.00000    0.01242    0.02774 =
         0.01799   -0.00352   -0.00229   -0.00076
C1    1    1.034643    0.739052    0.606296    31.00000    0.00880    0.01678 =
         0.01417   -0.00084   -0.00049    0.00153
C2    1    1.068917    0.786013    0.552453    31.00000    0.02056    0.02292 =
         0.01648    0.00172    0.00091    0.00230
F1    4    1.006965    0.848895    0.551824    31.00000    0.03760    0.02704 =
         0.02320    0.00841    0.00664    0.00839
F2    4    1.033334    0.752115    0.501253    31.00000    0.02773    0.04231 =
         0.01582   -0.00433    0.00368    0.00041
F3    4    1.190614    0.800763    0.554029    31.00000    0.02188    0.03905 =
         0.02277    0.00652    0.00645   -0.00791
C3    1    1.068260    0.658350    0.595533    31.00000    0.01554    0.02134 =
         0.03271   -0.00145    0.00538    0.00221
F4    4    0.980563    0.625669    0.559817    31.00000    0.03179    0.02907 =
         0.04510   -0.01229    0.00430   -0.00493
F5    4    1.177211    0.652121    0.570628    31.00000    0.01766    0.02603 =
         0.04386   -0.00815    0.00908    0.00389
F6    4    1.077614    0.620844    0.646619    31.00000    0.04233    0.01913 =
         0.03686    0.00464    0.00688    0.00322
C4    1    1.109038    0.766293    0.664796    31.00000    0.01840    0.02196 =
         0.01622    0.00393   -0.00348   -0.00247
F7    4    1.102287    0.839479    0.669077    31.00000    0.04097    0.01672 =
         0.02186   -0.00097   -0.00321   -0.00347
F8    4    1.059878    0.740067    0.712622    31.00000    0.02401    0.03867 =
         0.01230    0.00364   -0.00103   -0.00471
F9    4    1.229392    0.747896    0.667641    31.00000    0.01253    0.03745 =
         0.03064    0.00125   -0.00313   -0.00152
PART  0
RESI  0
SIMU_CCF3 O1 > F9
RIGU_CCF3 O1 > F9
RESI   4 CCF3
SADI_CCF3 C1 C2 C1 C3 C1 C4
SADI_CCF3 F1 C2 F2 C2 F3 C2 F4 C3 F5 C3 F6 C3 F7 C4 F8 C4 F9 C4
SADI_CCF3 0.04 C2 C3 C3 C4 C2 C4
SADI_CCF3 0.04 O1 C2 O1 C3 O1 C4
SADI_CCF3 0.04 F1 F2 F2 F3 F3 F1 F4 F5 F5 F6 F6 F4 F7 F8 F8 F9 F9 F7
SADI_CCF3 0.1 F1 C1 F2 C1 F3 C1 F4 C1 F5 C1 F6 C1 F7 C1 F8 C1 F9 C1
PART 2 -31
O1    3    0.913527    0.743344    0.613729   -31.00000    0.01534    0.02413 =
         0.01981    0.00268   -0.00238   -0.00231
C1    1    1.037269    0.731133    0.606531   -31.00000    0.01440    0.02577 =
         0.02732    0.00089   -0.00069   -0.00391
C2    1    1.102141    0.804705    0.595641   -31.00000    0.02334    0.03077 =
         0.03301    0.00302   -0.00307   -0.00881
F1    4    1.038490    0.847356    0.555487   -31.00000    0.02331    0.02137 =
         0.03644    0.00047   -0.00626   -0.01430
F2    4    1.214146    0.792744    0.575991   -31.00000    0.02319    0.02892 =
         0.03702    0.00828   -0.00068   -0.01255
F3    4    1.117130    0.842726    0.646416   -31.00000    0.03213    0.03257 =
         0.03753   -0.00086   -0.00005   -0.01599
C3    1    1.099509    0.696430    0.664996   -31.00000    0.02279    0.03856 =
         0.02927    0.00563   -0.00169    0.00372
F4    4    1.073969    0.626286    0.669931   -31.00000    0.02226    0.04179 =
         0.03956    0.00770    0.00580    0.00639
F5    4    1.055656    0.729051    0.712055   -31.00000    0.02581    0.04865 =
         0.03038    0.00394   -0.00086    0.00642
F6    4    1.223403    0.704897    0.669432   -31.00000    0.02324    0.06168 =
         0.03674    0.00796   -0.00248    0.00294
C4    1    1.048508    0.678906    0.552882   -31.00000    0.01688    0.03243 =
         0.03034   -0.00195   -0.00087   -0.00270
F7    4    0.955971    0.630689    0.554526   -31.00000    0.01697    0.03171 =
         0.03041   -0.01064    0.00595   -0.00214
F8    4    1.157507    0.643957    0.554931   -31.00000    0.01803    0.03445 =
         0.03199   -0.00506   -0.00102   -0.00035
F9    4    1.031311    0.711950    0.499856   -31.00000    0.02423    0.03704 =
         0.02882   -0.00311   -0.00121    0.00099
PART 0
RESI 0
RESI  5 CCF3
PART 1 41
EADP O1_5 O1_6
O1    3    0.803171    0.845511    0.421046    41.00000    0.02037    0.01542 =
         0.01468    0.00124    0.00438   -0.00013
C1    1    0.848287    0.890778    0.379971    41.00000    0.01782    0.01578 =
         0.01888    0.00431    0.00534   -0.00462
C2    1    0.767207    0.888132    0.319197    41.00000    0.02633    0.02667 =
         0.02220    0.00683    0.00200   -0.00504
F1    4    0.660373    0.924434    0.322788    41.00000    0.03238    0.05739 =
         0.04164    0.01496   -0.00026    0.01331
F2    4    0.735583    0.819602    0.305520    41.00000    0.04379    0.03508 =
         0.02499   -0.00179   -0.00238   -0.01328
F3    4    0.824606    0.915927    0.273816    41.00000    0.04232    0.04189 =
         0.02005    0.01341    0.00663   -0.00766
C3    1    0.845473    0.969145    0.405445    41.00000    0.04779    0.01904 =
         0.03215   -0.00041    0.01270   -0.00822
F4    4    0.859348    1.019020    0.362293    41.00000    0.07472    0.02014 =
         0.04445    0.00776    0.01870   -0.00665
F5    4    0.739524    0.981985    0.429369    41.00000    0.06131    0.02118 =
         0.04789   -0.00069    0.02689    0.00417
F6    4    0.938157    0.979090    0.447831    41.00000    0.06896    0.04029 =
         0.04347   -0.01123   -0.00090   -0.02078
C4    1    0.985117    0.869941    0.368387    41.00000    0.02099    0.03645 =
         0.03036    0.00572    0.00759   -0.00378
F7    4    1.041913    0.923969    0.340643    41.00000    0.03057    0.04624 =
         0.04474    0.00187    0.02162   -0.01497
F8    4    0.986848    0.810622    0.333833    41.00000    0.03257    0.03948 =
         0.04692    0.00053    0.02339    0.00047
F9    4    1.053080    0.855131    0.418679    41.00000    0.02203    0.08794 =
         0.04147    0.01622    0.00282    0.00567
PART 0
RESI  0
 
SIMU_CCF3 O1 > F9
RIGU_CCF3 O1 > F9
RESI   6 CCF3
SADI_CCF3 C1 C2 C1 C3 C1 C4
SADI_CCF3 F1 C2 F2 C2 F3 C2 F4 C3 F5 C3 F6 C3 F7 C4 F8 C4 F9 C4
SADI_CCF3 0.04 C2 C3 C3 C4 C2 C4
SADI_CCF3 0.04 O1 C2 O1 C3 O1 C4
SADI_CCF3 0.04 F1 F2 F2 F3 F3 F1 F4 F5 F5 F6 F6 F4 F7 F8 F8 F9 F9 F7
SADI_CCF3 0.1 F1 C1 F2 C1 F3 C1 F4 C1 F5 C1 F6 C1 F7 C1 F8 C1 F9 C1
PART 2 -41
O1    3    0.809737    0.837445    0.416697   -41.00000    0.02552    0.02080 =
         0.02512    0.00312    0.00703   -0.00233
C1    1    0.855787    0.888394    0.379623   -41.00000    0.03010    0.02523 =
         0.03170    0.00782    0.00983   -0.00383
C2    1    0.791680    0.877775    0.315450   -41.00000    0.03817    0.03574 =
         0.03141    0.00842    0.00941   -0.00804
F1    4    0.843964    0.821297    0.289795   -41.00000    0.05488    0.04249 =
         0.03620    0.00250    0.01119   -0.00371
F2    4    0.802748    0.936388    0.281399   -41.00000    0.03940    0.03927 =
         0.03202    0.01074    0.00770   -0.00929
F3    4    0.669099    0.864752    0.315082   -41.00000    0.04045    0.05418 =
         0.03589    0.00468    0.00933   -0.01308
C3    1    0.829126    0.965664    0.402929   -41.00000    0.03773    0.02578 =
         0.04130    0.00608    0.01253   -0.00338
F4    4    0.849392    0.971608    0.462214   -41.00000    0.05397    0.03466 =
         0.04173    0.00223    0.01178   -0.00790
F5    4    0.709358    0.983189    0.389318   -41.00000    0.04107    0.02354 =
         0.05121    0.00414    0.01174    0.00126
F6    4    0.899683    1.015781    0.378600   -41.00000    0.03973    0.02664 =
         0.04590    0.00614    0.01117   -0.00467
C4    1    0.999721    0.877287    0.379674   -41.00000    0.03016    0.04199 =
         0.03871    0.00987    0.00978   -0.00112
F7    4    1.055342    0.902583    0.431157   -41.00000    0.03438    0.05813 =
         0.04288    0.00575    0.00627   -0.00232
F8    4    1.052809    0.908651    0.334547   -41.00000    0.02784    0.04734 =
         0.04352    0.01350    0.01124   -0.00161
F9    4    1.025118    0.806531    0.377273   -41.00000    0.02990    0.04455 =
         0.03759    0.01197    0.01388    0.00263
PART 0
RESI 0
 
HKLF 5
 
REM  NO_PF-F-PF_twin4_XPREP in P2(1)/n
REM R1 =  0.0885 for    6519 Fo > 4sig(Fo)  and  0.1466 for all   10418 data
REM   1184 parameters refined using   7497 restraints
 
END 
 
WGHT      0.0002     74.4400 

REM Highest difference peak  0.680,  deepest hole -0.508,  1-sigma level  0.104
Q1    1   0.7590  0.7414  0.5477  11.00000  0.05    0.68
Q2    1   0.7441  0.7626  0.4689  11.00000  0.05    0.64
Q3    1   0.8059  0.6200  0.3437  11.00000  0.05    0.53
Q4    1   1.0024  0.9432  0.4469  11.00000  0.05    0.50
Q5    1   1.0502  0.6428  0.4214  11.00000  0.05    0.47
Q6    1   0.6713  0.6535  0.5568  11.00000  0.05    0.46
Q7    1   0.8047  0.8489  0.3834  11.00000  0.05    0.43
Q8    1   0.9005  0.8025  0.3138  11.00000  0.05    0.43
Q9    1   0.4633  0.6183  0.3725  11.00000  0.05    0.42
Q10   1   0.4618  0.9418  0.6316  11.00000  0.05    0.42
Q11   1   0.7399  0.6002  0.3673  11.00000  0.05    0.42
Q12   1   0.6984  0.6023  0.6577  11.00000  0.05    0.41
Q13   1   0.8055  0.8943  0.3543  11.00000  0.05    0.41
Q14   1   0.3993  0.6427  0.3971  11.00000  0.05    0.40
Q15   1   0.4473  0.5959  0.6438  11.00000  0.05    0.40
Q16   1   0.5689  0.8734  0.5710  11.00000  0.05    0.39
Q17   1   0.4142  0.7611  0.3923  11.00000  0.05    0.39
Q18   1   0.6621  0.8381  0.5928  11.00000  0.05    0.39
Q19   1   0.4783  0.5669  0.5807  11.00000  0.05    0.39
Q20   1   0.6555  0.7355  0.6084  11.00000  0.05    0.39
