REM Solution 1  R1  0.208  Rweak  0.229,  Alpha = 0.0357  in P-4
REM Flack x = -1.131 ( 0.168 ) from Parsons' quotients
REM Formula:  C28 O16 F20 Al Fe
TITL Detwinned_P-4 in P-4
CELL  0.71073   9.3551   9.3551   9.3670   90.000   90.000   90.000
ZERR    8.00   0.00030   0.00030   0.00030   0.0000   0.0000   0.0000
LATT -1
SYMM -X, -Y, Z
SYMM Y, -X, -Z
SYMM -Y, X, -Z
SFAC C O F AL FE
UNIT 8 8 8 8 8
TEMP -173.130
L.S. 10
BOND
acta
LIST 4
FMAP 2
PLAN 20
RIGU
WGHT    0.100000
BASF   0.30067   0.28100
FVAR      23.42765 0.8
FE1   5    0.000000    0.000000    0.000000    10.25000    0.00778    0.00778 =
         0.01455    0.00000    0.00000    0.00000
O2    2    0.166062    0.194695    0.172309    11.00000    0.07187    0.03448 =
         0.08830   -0.03066   -0.05130    0.00535
C5    1    0.090189    0.122641    0.105344    11.00000    0.03934    0.01642 =
         0.01251   -0.00728   -0.00192   -0.00567
AL1   4    0.500000    0.500000    0.500000    10.25000    0.01818    0.01818 =
         0.00952    0.00000    0.00000    0.00000

PART 1 21
O1    2    0.559198    0.361491    0.399236    11.00000    0.03136    0.03609 =
         0.02013   -0.00753    0.00455    0.01119
C1    1    0.653959    0.296541    0.315344    11.00000    0.02700    0.03064 =
         0.01000    0.00037    0.00786    0.00627
C2    1    0.765995    0.401666    0.258727    11.00000    0.03234    0.03068 =
         0.02121    0.00102    0.00689    0.00360
F1    3    0.545407    0.333503    0.094023    11.00000    0.04503    0.03435 =
         0.02010    0.00918    0.00400   -0.00080
F2    3    0.458195    0.163222    0.223543    11.00000    0.03268    0.03461 =
         0.02111    0.00368    0.00446   -0.00554
F3    3    0.658657    0.129983    0.118397    11.00000    0.04185    0.01722 =
         0.03360    0.00784    0.02115   -0.00919
C3    1    0.572585    0.228865    0.183795    11.00000    0.03244    0.02844 =
         0.00824    0.00407    0.00544   -0.00056
F4    3    0.647844    0.058094    0.409852    11.00000    0.03886    0.02769 =
         0.02454   -0.00063    0.01126    0.00151
F5    3    0.853719    0.122903    0.339356    11.00000    0.03058    0.02662 =
         0.03172    0.00008    0.00722    0.01189
F6    3    0.774530    0.222883    0.529166    11.00000    0.04636    0.04228 =
         0.00726   -0.00286   -0.00691   -0.00189
C4    1    0.737662    0.171878    0.399735    11.00000    0.03155    0.02933 =
         0.00905   -0.00343    0.00079    0.00703
F7    3    0.862350    0.424521    0.361888    11.00000    0.04143    0.04176 =
         0.02952   -0.00081   -0.00047    0.00816
F8    3    0.841340    0.354827    0.149084    11.00000    0.03774    0.02085 =
         0.02772    0.00262    0.01659    0.00446
F9    3    0.706842    0.526194    0.225396    11.00000    0.03620    0.02392 =
         0.02839    0.00871    0.00441    0.00138
PART 0
rem dsr put OC(CF3)3 with O1 C2 C3 on O1 q1 q14 part 2 occ -21 resi
HKLF 5
 
REM  Detwinned_P-4 in P-4
REM R1 =  0.1203 for    2399 Fo > 4sig(Fo)  and  0.1203 for all    2399 data
REM    151 parameters refined using    126 restraints
 
END 
 
WGHT      0.2000      0.0000 

REM Highest difference peak  1.202,  deepest hole -1.033,  1-sigma level  0.251
Q1    1   0.8361  0.2473  0.4015  11.00000  0.05    1.20
Q2    1   0.5802  0.2339  0.2778  11.00000  0.05    0.95
Q3    1   0.1615  0.2279  0.1853  11.00000  0.05    0.89
Q4    1   0.6368  0.1571  0.6015  11.00000  0.05    0.85
Q5    1   0.2324  0.0682  0.2486  11.00000  0.05    0.83
Q6    1   0.9226  0.2451  0.2492  11.00000  0.05    0.81
Q7    1   0.8468  0.5728  0.3545  11.00000  0.05    0.80
Q8    1   0.2226  0.1392  0.1407  11.00000  0.05    0.80
Q9    1   0.8572  0.2267  0.1398  11.00000  0.05    0.77
Q10   1   0.7045  0.2523  0.4547  11.00000  0.05    0.74
Q11   1   0.7677 -0.0569  0.4110  11.00000  0.05    0.73
Q12   1   0.6739 -0.0664  0.4195  11.00000  0.05    0.72
Q13   1   0.4389  0.3261  0.0792  11.00000  0.05    0.72
Q14   1   0.7185  0.4544  0.2186  11.00000  0.05    0.70
Q15   1   0.7022  0.3651  0.4028  11.00000  0.05    0.70
Q16   1   0.0935  0.2861  0.3109  11.00000  0.05    0.70
Q17   1   0.6438  0.3375  0.6072  11.00000  0.05    0.67
Q18   1   0.8984  0.5787  0.3076  11.00000  0.05    0.67
Q19   1   0.3981  0.0544  0.0802  11.00000  0.05    0.67
Q20   1   0.7165  0.1231  0.0168  11.00000  0.05    0.66
